.Version 7.4.3 of ABINIT

 ABINIT is a project of the Universite Catholique de Louvain,
 Corning Inc. and other collaborators, see ~abinit/doc/developers/contributors.txt .
 Please read ~abinit/doc/users/acknowledgments.html for suggested
 acknowledgments of the ABINIT effort.

.Starting date : Mon  4 Jun 2018.
- ( at 13h01 )

 herald :  WARNING -
  The starting date is more than 3 years after the initial release
  of this version of ABINIT, namely Aug 2013.
  This version of ABINIT is not supported anymore.
  Action : please, switch to a more recent version of ABINIT.

 herald :  WARNING -
  The starting date is more than 3 years after the initial release
  of this version of ABINIT, namely Aug 2013.
  This version of ABINIT is not supported anymore.
  Action : please, switch to a more recent version of ABINIT.

 === Build Information ===
  Version       : 7.4.3
  Build target  : i686_cygwin_gnu4.7
  Build date    : 20131019

 === Optimizations ===
  Debug level        : no
  Optimization level : standard
  Architecture       : _

  Parallel build : yes
  Parallel I/O   : no
  Time tracing   : no
  GPU support    : no

 === Connectors / Fallbacks ===
  Connectors on : yes
  Fallbacks on  : yes
  FFT flavor    : none
  LINALG flavor : netlib
  MATH flavor   : none
  TIMER flavor  : abinit
  TRIO flavor   : netcdf+etsf_io

 === Experimental features ===
  Bindings            : no
  Exports             : no
  GW double-precision : yes

 === Bazaar branch information ===
  Branch ID : xavier.gonze@uclouvain.be-20131019063522-8wupmx7xtg5stywd
  Revision  : 490
  Committed : 0

 Default optimizations:
   --- None ---

 CPP options activated during the build:

                    CC_GNU                   CXX_GNU                    FC_GNU

           HAVE_BZR_BRANCH          HAVE_DFT_ATOMPAW           HAVE_DFT_BIGDFT

      HAVE_FC_COMMAND_LINE        HAVE_FC_CONTIGUOUS           HAVE_FC_CPUTIME

              HAVE_FC_EXIT             HAVE_FC_FLUSH             HAVE_FC_GAMMA

            HAVE_FC_GETENV          HAVE_FC_INT_QUAD             HAVE_FC_IOMSG

     HAVE_FC_ISO_C_BINDING        HAVE_FC_LONG_LINES              HAVE_FC_NULL

         HAVE_FC_STREAM_IO          HAVE_FORTRAN2003               HAVE_LINALG

        HAVE_LINALG_SERIAL                  HAVE_MPI                 HAVE_MPI1

 HAVE_MPI_TYPE_CREATE_S...           HAVE_OS_WINDOWS                HAVE_TIMER

         HAVE_TIMER_ABINIT            HAVE_TIMER_MPI         HAVE_TIMER_SERIAL

         HAVE_TRIO_ETSF_IO          HAVE_TRIO_NETCDF

- input  file    -> tbase4_6.in
- output file    -> tbase4_6.out
- root for input  files -> tbase4_xi
- root for output files -> tbase4_xo

-instrng :    78 lines of input have been read from file tbase4_6.in

 iofn2 : Please give name of formatted atomic psp file
 iofn2 : for atom type   1 , psp file is 13al.981214.fhi
  read the values zionpsp=  3.0 , pspcod=   6 , lmax=   2

 inpspheads : deduce mpsang  =   3, n1xccc  =   0.

 invars1m : enter jdtset=     1
 invars1 : treat image number     1

 symlatt : the Bravais lattice is tP (primitive tetragonal)
  xcart  is defined in input file
 ingeo : takes atomic coordinates from input array xcart

 symlatt : the Bravais lattice is tP (primitive tetragonal)

 symlatt : the Bravais lattice is tP (primitive tetragonal)
 symspgr : the symmetry operation no.   1 is the identity
 symspgr : the symmetry operation no.   2 is an inversion
 symaxes : the symmetry operation no.   3 is a 2-axis
 symplanes : the symmetry operation no.   4 is a mirror plane
 symaxes : the symmetry operation no.   5 is a 2-axis
 symplanes : the symmetry operation no.   6 is a mirror plane
 symaxes : the symmetry operation no.   7 is a 2-axis
 symplanes : the symmetry operation no.   8 is a mirror plane
 symplanes : the symmetry operation no.   9 is a mirror plane
 symaxes : the symmetry operation no.  10 is a tertiary 2-axis
 symspgr : the symmetry operation no.  11 is a -4 axis
 symaxes : the symmetry operation no.  12 is a 4-axis
 symplanes : the symmetry operation no.  13 is a mirror plane
 symaxes : the symmetry operation no.  14 is a tertiary 2-axis
 symspgr : the symmetry operation no.  15 is a -4 axis
 symaxes : the symmetry operation no.  16 is a 4-axis
 symspgr : spgroup= 123  P4/m m m   (=D4h^1)
 getkgrid : length of smallest supercell vector (bohr)=    3.002236E+01
       Simple Lattice Grid
 symkpt : found identity, with number  1

 invars1m : enter jdtset=     2
 invars1 : treat image number     1

 symlatt : the Bravais lattice is tP (primitive tetragonal)
  xcart  is defined in input file
 ingeo : takes atomic coordinates from input array xcart

 symlatt : the Bravais lattice is tP (primitive tetragonal)

 symlatt : the Bravais lattice is tP (primitive tetragonal)
 symspgr : the symmetry operation no.   1 is the identity
 symspgr : the symmetry operation no.   2 is an inversion
 symaxes : the symmetry operation no.   3 is a 2-axis
 symplanes : the symmetry operation no.   4 is a mirror plane
 symaxes : the symmetry operation no.   5 is a 2-axis
 symplanes : the symmetry operation no.   6 is a mirror plane
 symaxes : the symmetry operation no.   7 is a 2-axis
 symplanes : the symmetry operation no.   8 is a mirror plane
 symplanes : the symmetry operation no.   9 is a mirror plane
 symaxes : the symmetry operation no.  10 is a tertiary 2-axis
 symspgr : the symmetry operation no.  11 is a -4 axis
 symaxes : the symmetry operation no.  12 is a 4-axis
 symplanes : the symmetry operation no.  13 is a mirror plane
 symaxes : the symmetry operation no.  14 is a tertiary 2-axis
 symspgr : the symmetry operation no.  15 is a -4 axis
 symaxes : the symmetry operation no.  16 is a 4-axis
 symspgr : spgroup= 123  P4/m m m   (=D4h^1)
 getkgrid : length of smallest supercell vector (bohr)=    3.002236E+01
       Simple Lattice Grid
 symkpt : found identity, with number  1
 invars2: take the default value of fband=  5.00000000E-01
 getkgrid : length of smallest supercell vector (bohr)=    3.002236E+01
       Simple Lattice Grid
 symkpt : found identity, with number  1
  dtset%nelect=   9.0000000000000000
 chkneu : initialized the occupation numbers for occopt=    4
    spin-unpolarized case :
  2.00  2.00  2.00  2.00  1.00  0.00  0.00
 invars2: take the default value of fband=  5.00000000E-01
 getkgrid : length of smallest supercell vector (bohr)=    3.002236E+01
       Simple Lattice Grid
 symkpt : found identity, with number  1
  dtset%nelect=   9.0000000000000000
 chkneu : initialized the occupation numbers for occopt=    4
    spin-unpolarized case :
  2.00  2.00  2.00  2.00  1.00  0.00  0.00
  mpi_setup : enter
 mpi_setup1: mkmem  undefined in the input file. Use default mkmem  = nkpt
 mpi_setup1: With nkpt_me=    6 and mkmem  =     6, ground state wf handled in core.
 mpi_setup1: mkqmem undefined in the input file. Use default mkqmem = nkpt
 mpi_setup1: With nkpt_me=    6 and mkqmem =     6, ground state wf handled in core.
 mpi_setup1: mk1mem undefined in the input file. Use default mk1mem = nkpt
 mpi_setup1: With nkpt_me=    6 and mk1mem =     6, ground state wf handled in core.

 getng.F90:200:WARNING
 For input ecut=  6.000000E+00 best grid ngfft=      12      12      45
       max ecut=  6.307140E+00

 ==== FFT mesh ====
  FFT mesh divisions ........................    12   12   45
  Augmented FFT divisions ...................    13   13   45
  FFT algorithm .............................   112
  FFT cache size ............................    16
 getmpw: optimal value of mpw=     378
 mpi_setup1: mkmem  undefined in the input file. Use default mkmem  = nkpt
 mpi_setup1: With nkpt_me=    6 and mkmem  =     6, ground state wf handled in core.
 mpi_setup1: mkqmem undefined in the input file. Use default mkqmem = nkpt
 mpi_setup1: With nkpt_me=    6 and mkqmem =     6, ground state wf handled in core.
 mpi_setup1: mk1mem undefined in the input file. Use default mk1mem = nkpt
 mpi_setup1: With nkpt_me=    6 and mk1mem =     6, ground state wf handled in core.
 For input ecut=  6.000000E+00 best grid ngfft=      12      12      50
       max ecut=  6.083275E+00

 ==== FFT mesh ====
  FFT mesh divisions ........................    12   12   50
  Augmented FFT divisions ...................    13   13   50
  FFT algorithm .............................   112
  FFT cache size ............................    16
 getmpw: optimal value of mpw=     452

 DATASET    1 : space group P4/m m m (#123); Bravais tP (primitive tetrag.)

 getdim_nloc : deduce lmnmax  =   9, lnmax  =   3,
                      lmnmaxso=   9, lnmaxso=   3.
 setmqgrid : COMMENT -
  The number of points "mqgrid" in reciprocal space used for the
  description of the pseudopotentials has been set automatically
  by abinit to :     3001.
   intxc =         0  ionmov =         2    iscf =         7 xclevel =         1
  lmnmax =         3   lnmax =         3   mband =         7  mffmem =         1
P  mgfft =        45   mkmem =         6 mpssoang=         3     mpw =       378
  mqgrid =      3001   natom =         3    nfft =      6480    nkpt =         6
  nloalg =         4  nspden =         1 nspinor =         1  nsppol =         1
    nsym =        16  n1xccc =         0  ntypat =         1  occopt =         4
  Rough estimation (10% accuracy) of disk space for files :

 The job will continue.

 DATASET    2 : space group P4/m m m (#123); Bravais tP (primitive tetrag.)

 getdim_nloc : deduce lmnmax  =   9, lnmax  =   3,
                      lmnmaxso=   9, lnmaxso=   3.
 setmqgrid : COMMENT -
  The number of points "mqgrid" in reciprocal space used for the
  description of the pseudopotentials has been set automatically
  by abinit to :     3001.
   intxc =         0  ionmov =         2    iscf =         7 xclevel =         1
  lmnmax =         3   lnmax =         3   mband =         7  mffmem =         1
P  mgfft =        50   mkmem =         6 mpssoang=         3     mpw =       452
  mqgrid =      3001   natom =         3    nfft =      7200    nkpt =         6
  nloalg =         4  nspden =         1 nspinor =         1  nsppol =         1
    nsym =        16  n1xccc =         0  ntypat =         1  occopt =         4
  Rough estimation (10% accuracy) of disk space for files :

 The job will continue.
------------- Echo of variables that govern the present computation ------------
-
- outvars: echo of selected default values
-   accesswff0 =  0 , fftalg0 =112 , wfoptalg0 =  0
-
- outvars: echo of global parameters not present in the input file
-  max_nthreads =    0
-
 -outvars: echo values of preprocessed input variables --------

 These variables are accessible in NetCDF format (tbase4_xo_OUT.nc)

            acell      7.5055909000E+00  7.5055909000E+00  7.5055909000E+00 Bohr
              amu      2.69815390E+01
             ecut      6.00000000E+00 Hartree
           ionmov           2
           jdtset        1    2
              kpt      0.00000000E+00  1.25000000E-01  0.00000000E+00
                       0.00000000E+00  3.75000000E-01  0.00000000E+00
                       1.25000000E-01  2.50000000E-01  0.00000000E+00
                       1.25000000E-01  5.00000000E-01  0.00000000E+00
[...]
 Cartesian forces (fcart) [Ha/bohr]; max,rms= 5.14487E-03 2.42531E-03 (free atoms)
 -0.00000000000000E+00 -0.00000000000000E+00 -5.14486849874430E-03
 -0.00000000000000E+00 -0.00000000000000E+00 -2.89120579329468E-19
 -0.00000000000000E+00 -0.00000000000000E+00  5.14486849874431E-03
 Reduced forces (fred)
  0.00000000000000E+00  0.00000000000000E+00  1.15845834557616E-01
  0.00000000000000E+00  0.00000000000000E+00  0.00000000000000E+00
  0.00000000000000E+00  0.00000000000000E+00 -1.15845834557616E-01
 Total energy (etotal) [Ha]= -6.25479885452891E+00
 fconv : at Broyd/MD step   1, gradients have not converged yet.
  max grad (force/stress) = 5.1449E-03 > tolmxf= 5.0000E-04 ha/bohr (free atoms)

 Geometry Optimization Precondition:           0
 Inverse hessian has been initialized.
 EXIT:           1           1

[...]

 Difference of energy with previous step (new-old):
           Absolute (Ha)=-5.26590E-05
           Relative     =-8.41895E-06
 fconv : at Broyd/MD step   2, gradients have not converged yet.
  max grad (force/stress) = 5.0286E-03 > tolmxf= 5.0000E-04 ha/bohr (free atoms)

 Geometry Optimization Precondition:           0
 EXIT:           1           1

--- Iteration: ( 3/10) Internal Cycle: (1/1)

 Cartesian coordinates (xcart) [bohr]
  0.00000000000000E+00  0.00000000000000E+00 -2.27568797723584E-01
  0.00000000000000E+00  3.75279545000000E+00  3.75279545000000E+00
  0.00000000000000E+00  0.00000000000000E+00  7.73315969772358E+00
 Reduced coordinates (xred)
  0.00000000000000E+00  0.00000000000000E+00 -1.01066347631419E-02
 -5.00000000000000E-01  5.00000000000000E-01  1.66666666666667E-01
  0.00000000000000E+00  0.00000000000000E+00  3.43439968096475E-01

---SELF-CONSISTENT-FIELD CONVERGENCE--------------------------------------------

 getcut: wavevector=  0.0000  0.0000  0.0000  ngfft=  12  12  50
         ecut(hartree)=      6.000   => boxcut(ratio)=   2.01383

 ewald : nr and ng are    4 and   35

[...]

Simple mixing update:
  residual square of the potential :  0.11975729218479812

[...]

 Pulay update with  3 previous iterations:
 mixing of old trial potential : alpha(m:m-4)=   1.80     -0.787     -0.374E-01  0.198E-01

 ITER STEP NUMBER     5
 vtorho : nnsclo_now=  1, note that nnsclo,dbl_nnsclo,istep=  0 0  5
 newocc : new Fermi energy is       0.064710 , with nelect=      9.000000
  Number of bissection calls =  49
 newocc : computed new occ. numbers for occopt=    4 , spin-unpolarized case.
 2.000 2.000 2.000 2.113 0.005 0.000 0.000
 2.000 2.000 2.001 2.018 2.113 0.181 0.005
 2.000 2.000 2.000 1.693 0.705 0.005 0.000
 2.000 2.000 2.000 2.001 1.636 0.586 0.004
 2.000 2.000 2.046 2.141 0.946 0.003 0.002
 2.001 2.001 2.125 2.119 0.000 0.003 0.004
mkrho: echo density (plane-wave part only)
 Total charge density [el/Bohr^3]
,     Maximum=    3.4083E-02  at reduced coord.    0.0000    0.6667    0.0000
,     Minimum=    1.2005E-05  at reduced coord.    0.5000    0.5000    0.6600
,  Integrated=    9.0000E+00
 Total charge density [el/Bohr^3]
,     Maximum=    3.4083E-02  at reduced coord.    0.0000    0.6667    0.0000
,     Minimum=    1.2005E-05  at reduced coord.    0.5000    0.5000    0.6600
,  Integrated=    9.0000E+00
 ETOT  5  -6.2559073211416    -2.006E-06 9.688E-07 1.301E-02 1.289E-05 1.934E-04
 scprqt: <Vxc>= -2.3535095E-01 hartree

 At SCF step    5, forces are converged :
  for the second time, max diff in force=  1.289E-05 < toldff=  5.000E-05
forstrnps: loop on k-points and spins done in parallel
  strhar : before mpi_comm, harstr=   6.4117695382379631E-005   6.4117695382379645E-005   6.6379327223592841E-002  -9.1433749945870045E-023  -1.0587911840678754E-022  -6.9082505845248952E-022
  strhar : after mpi_comm, harstr=   6.4117695382379631E-005   6.4117695382379645E-005   6.6379327223592841E-002  -9.1433749945870045E-023  -1.0587911840678754E-022  -6.9082505845248952E-022
  strhar : ehart,ucvol=   6.7133159948575356        634.22875178763661

[...]

   1  3  3  1  1  3  3  1  1  3  3  1  1  3  3  1
   2  2  2  2  2  2  2  2  2  2  2  2  2  2  2  2
   3  1  1  3  3  1  1  3  3  1  1  3  3  1  1  3
 ioarr: writing density data
ioarr: file name is tbase4_xo_DS2_TIM3_DEN
ioarr: data written to disk file tbase4_xo_DS2_TIM3_DEN
 ihist @ write_md_hist           3
 mxhist @ write_md_hist          10
 OPEN NETCDF FILE

---OUTPUT-----------------------------------------------------------------------

 Cartesian coordinates (xcart) [bohr]
  0.00000000000000E+00  0.00000000000000E+00 -2.27568797723584E-01
  0.00000000000000E+00  3.75279545000000E+00  3.75279545000000E+00
  0.00000000000000E+00  0.00000000000000E+00  7.73315969772358E+00
 Reduced coordinates (xred)
  0.00000000000000E+00  0.00000000000000E+00 -1.01066347631419E-02
 -5.00000000000000E-01  5.00000000000000E-01  1.66666666666667E-01
  0.00000000000000E+00  0.00000000000000E+00  3.43439968096475E-01
 Cartesian forces (fcart) [Ha/bohr]; max,rms= 1.93385E-04 9.11627E-05 (free atoms)
 -0.00000000000000E+00 -0.00000000000000E+00  1.93385299239700E-04
 -0.00000000000000E+00 -0.00000000000000E+00 -1.80700362080917E-20
 -0.00000000000000E+00 -0.00000000000000E+00 -1.93385299239700E-04
 Reduced forces (fred)
  0.00000000000000E+00  0.00000000000000E+00 -4.35441282650181E-03
  0.00000000000000E+00  0.00000000000000E+00  0.00000000000000E+00
  0.00000000000000E+00  0.00000000000000E+00  4.35441282650181E-03
 Total energy (etotal) [Ha]= -6.25590732114158E+00

 Difference of energy with previous step (new-old):
           Absolute (Ha)=-1.05581E-03
           Relative     =-1.68784E-04

 At Broyd/MD step   3, gradients are converged :
  max grad (force/stress) = 1.9339E-04 < tolmxf= 5.0000E-04 ha/bohr (free atoms)

 Geometry Optimization Precondition:           0

 ----iterations are completed or convergence reached----

 outwf: write wavefunction to file tbase4_xo_DS2_WFK, with accesswff -1
 leave_test : synchronization done...

 Cartesian components of stress tensor (hartree/bohr^3)
  sigma(1 1)=  1.59832234E-04  sigma(3 2)=  0.00000000E+00
  sigma(2 2)=  1.59832234E-04  sigma(3 1)=  0.00000000E+00
  sigma(3 3)=  7.00686759E-06  sigma(2 1)=  0.00000000E+00

-Cartesian components of stress tensor (GPa)         [Pressure= -3.2037E+00 GPa]
- sigma(1 1)=  4.70242589E+00  sigma(3 2)=  0.00000000E+00
- sigma(2 2)=  4.70242589E+00  sigma(3 1)=  0.00000000E+00
- sigma(3 3)=  2.06149127E-01  sigma(2 1)=  0.00000000E+00

== END DATASET(S) ==============================================================

 -outvars: echo values of variables after computation  --------

 These variables are accessible in NetCDF format (tbase4_xo_OUT.nc)

            acell      7.5055909000E+00  7.5055909000E+00  7.5055909000E+00 Bohr
              amu      2.69815390E+01
             ecut      6.00000000E+00 Hartree
           etotal1    -6.2546922455E+00
           etotal2    -6.2559073211E+00
            fcart1    -0.0000000000E+00 -0.0000000000E+00 -4.3485707659E-04
                      -0.0000000000E+00 -0.0000000000E+00 -3.6140072416E-20
                      -0.0000000000E+00 -0.0000000000E+00  4.3485707659E-04
            fcart2    -0.0000000000E+00 -0.0000000000E+00  1.9338529924E-04
                      -0.0000000000E+00 -0.0000000000E+00 -1.8070036208E-20
                      -0.0000000000E+00 -0.0000000000E+00 -1.9338529924E-04
           ionmov           2
           jdtset        1    2
              kpt      0.00000000E+00  1.25000000E-01  0.00000000E+00
                       0.00000000E+00  3.75000000E-01  0.00000000E+00
                       1.25000000E-01  2.50000000E-01  0.00000000E+00
                       1.25000000E-01  5.00000000E-01  0.00000000E+00
                       2.50000000E-01  3.75000000E-01  0.00000000E+00
                       3.75000000E-01  5.00000000E-01  0.00000000E+00
         kptrlatt        4   -4    0      4    4    0      0    0    1
          kptrlen      3.00223636E+01
P           mkmem           6
            natom           3
            nband           7
           ndtset           2
            ngfft1         12      12      45
            ngfft2         12      12      50
             nkpt           6
            nstep           6
             nsym          16
            ntime          10
           ntypat           1
              occ1     2.000000  2.000000  2.000000  2.134180  0.003200  0.000207
                       0.000000
                       2.000000  2.000000  2.000535  2.017763  2.122980  0.097121
                       0.005143
                       2.000000  2.000000  2.000131  1.476471  0.886091  0.004868
                       0.001101
                       2.000000  2.000000  2.000293  2.000454  1.662912  0.548226
                       0.002886
                       2.000000  2.000000  2.033464  2.141430  1.016895  0.004730
                       0.002616
                       2.000314  2.000565  2.131031  2.130694  0.001043  0.001421
                       0.003433
              occ2     2.000000  2.000000  2.000000  2.112806  0.005255  0.000124
                       0.000000
                       2.000000  2.000000  2.000937  2.017991  2.112735  0.180728
                       0.005166
                       2.000000  2.000000  2.000134  1.693497  0.705342  0.004641
                       0.000402
                       2.000000  2.000000  2.000336  2.000600  1.635729  0.586215
                       0.003733
                       2.000000  2.000001  2.045896  2.141342  0.945984  0.003327
                       0.001927
                       2.000579  2.000959  2.125184  2.119447  0.000053  0.002860
                       0.003576
           occopt           4
        optforces           1
            rprim1     5.0000000000E-01 -5.0000000000E-01  0.0000000000E+00
                       5.0000000000E-01  5.0000000000E-01  0.0000000000E+00
                       0.0000000000E+00  0.0000000000E+00  2.5000000000E+00
            rprim2     5.0000000000E-01 -5.0000000000E-01  0.0000000000E+00
                       5.0000000000E-01  5.0000000000E-01  0.0000000000E+00
                       0.0000000000E+00  0.0000000000E+00  3.0000000000E+00
           shiftk     -5.00000000E-01  5.00000000E-01  0.00000000E+00
          spgroup         123
           strten1     1.6884710651E-04  1.6884710651E-04 -5.8631298753E-06
                       0.0000000000E+00  0.0000000000E+00  0.0000000000E+00
           strten2     1.5983223413E-04  1.5983223413E-04  7.0068675887E-06
                       0.0000000000E+00  0.0000000000E+00  0.0000000000E+00
           symrel      1  0  0   0  1  0   0  0  1      -1  0  0   0 -1  0   0  0 -1
                      -1  0  0   0  1  0   0  0 -1       1  0  0   0 -1  0   0  0  1
                      -1  0  0   0 -1  0   0  0  1       1  0  0   0  1  0   0  0 -1
                       1  0  0   0 -1  0   0  0 -1      -1  0  0   0  1  0   0  0  1
                       0  1  0   1  0  0   0  0  1       0 -1  0  -1  0  0   0  0 -1
                       0 -1  0   1  0  0   0  0 -1       0  1  0  -1  0  0   0  0  1
                       0 -1  0  -1  0  0   0  0  1       0  1  0   1  0  0   0  0 -1
                       0  1  0  -1  0  0   0  0 -1       0 -1  0   1  0  0   0  0  1
            tnons1     0.0000000  0.0000000  0.0000000     0.0000000  0.0000000  0.4000000
                       0.0000000  0.0000000  0.4000000     0.0000000  0.0000000  0.0000000
                       0.0000000  0.0000000  0.0000000     0.0000000  0.0000000  0.4000000
                       0.0000000  0.0000000  0.4000000     0.0000000  0.0000000  0.0000000
                       0.0000000  0.0000000  0.0000000     0.0000000  0.0000000  0.4000000
                       0.0000000  0.0000000  0.4000000     0.0000000  0.0000000  0.0000000
                       0.0000000  0.0000000  0.0000000     0.0000000  0.0000000  0.4000000
                       0.0000000  0.0000000  0.4000000     0.0000000  0.0000000  0.0000000
            tnons2     0.0000000  0.0000000  0.0000000     0.0000000  0.0000000  0.3333333
                       0.0000000  0.0000000  0.3333333     0.0000000  0.0000000  0.0000000
                       0.0000000  0.0000000  0.0000000     0.0000000  0.0000000  0.3333333
                       0.0000000  0.0000000  0.3333333     0.0000000  0.0000000  0.0000000
                       0.0000000  0.0000000  0.0000000     0.0000000  0.0000000  0.3333333
                       0.0000000  0.0000000  0.3333333     0.0000000  0.0000000  0.0000000
                       0.0000000  0.0000000  0.0000000     0.0000000  0.0000000  0.3333333
                       0.0000000  0.0000000  0.3333333     0.0000000  0.0000000  0.0000000
           toldff      5.00000000E-05
           tolmxf      5.00000000E-04
            typat      1  1  1
              wtk        0.12500    0.12500    0.25000    0.12500    0.25000    0.12500
           xangst1     0.0000000000E+00  0.0000000000E+00 -8.3540076336E-02
                       0.0000000000E+00  1.9858938206E+00  1.9858938206E+00
                       0.0000000000E+00  0.0000000000E+00  4.0553277176E+00
           xangst2     0.0000000000E+00  0.0000000000E+00 -1.2042422114E-01
                       0.0000000000E+00  1.9858938206E+00  1.9858938206E+00
                       0.0000000000E+00  0.0000000000E+00  4.0922118624E+00
            xcart1     0.0000000000E+00  0.0000000000E+00 -1.5786786540E-01
                       0.0000000000E+00  3.7527954500E+00  3.7527954500E+00
                       0.0000000000E+00  0.0000000000E+00  7.6634587654E+00
            xcart2     0.0000000000E+00  0.0000000000E+00 -2.2756879772E-01
                       0.0000000000E+00  3.7527954500E+00  3.7527954500E+00
                       0.0000000000E+00  0.0000000000E+00  7.7331596977E+00
             xred1     0.0000000000E+00  0.0000000000E+00 -8.4133477297E-03
                      -5.0000000000E-01  5.0000000000E-01  2.0000000000E-01
                       0.0000000000E+00  0.0000000000E+00  4.0841334773E-01
             xred2     0.0000000000E+00  0.0000000000E+00 -1.0106634763E-02
                      -5.0000000000E-01  5.0000000000E-01  1.6666666667E-01
                       0.0000000000E+00  0.0000000000E+00  3.4343996810E-01
            znucl       13.00000

 Suggested references for the acknowledgment of ABINIT usage.

 [1] Ab initio pseudopotentials for electronic structure calculations of poly-atomic systems,
 using density-functional theory.
 M. Fuchs, M. Scheffler, Comput. Phys. Commun. 119, 67 (1999).
 Comment : Some pseudopotential generated using the FHI code were used.

 [2] ABINIT : First-principles approach of materials and nanosystem properties.
 X. Gonze, B. Amadon, P.-M. Anglade, J.-M. Beuken, F. Bottin, P. Boulanger, F. Bruneval,
 D. Caliste, R. Caracas, M. Cote, T. Deutsch, L. Genovese, Ph. Ghosez, M. Giantomassi
 S. Goedecker, D.R. Hamann, P. Hermet, F. Jollet, G. Jomard, S. Leroux, M. Mancini, S. Mazevet,
 M.J.T. Oliveira, G. Onida, Y. Pouillon, T. Rangel, G.-M. Rignanese, D. Sangalli, R. Shaltaf,
 M. Torrent, M.J. Verstraete, G. Zerah, J.W. Zwanziger
 Computer Phys. Comm. 180, 2582-2615 (2009).
 Comment : the third generic paper describing the ABINIT project.
 Note that a version of this paper, that is not formatted for Computer Phys. Comm.
 The licence allows the authors to put it on the Web.

 [3] A brief introduction to the ABINIT software package.
 X. Gonze, G.-M. Rignanese, M. Verstraete, J.-M. Beuken, Y. Pouillon, R. Caracas, F. Jollet,
 M. Torrent, G. Zerah, M. Mikami, Ph. Ghosez, M. Veithen, J.-Y. Raty, V. Olevano, F. Bruneval,
 L. Reining, R. Godby, G. Onida, D.R. Hamann, and D.C. Allan.
 Z. Kristallogr. 220, 558-562 (2005).
 Comment : the second generic paper describing the ABINIT project. Note that this paper
 should be cited especially if you are using the GW part of ABINIT, as several authors
 of this part are not in the list of authors of the first or third paper.
 Note that it should not redistributed (Copyright by Oldenburg Wissenshaftverlag,
 the licence allows the authors to put it on the Web).

 And optionally :

 [4] First-principles computation of material properties : the ABINIT software project.
 X. Gonze, J.-M. Beuken, R. Caracas, F. Detraux, M. Fuchs, G.-M. Rignanese, L. Sindic,
 M. Verstraete, G. Zerah, F. Jollet, M. Torrent, A. Roy, M. Mikami, Ph. Ghosez, J.-Y. Raty, D.C. Allan.
 Comment : the original paper describing the ABINIT project.

 [5] Fast radix 2, 3, 4 and 5 kernels for Fast Fourier Transformations
 on computers with overlapping multiply-add instructions.
 S. Goedecker, SIAM J. on Scientific Computing 18, 1605 (1997).

 Calculation completed.
.Delivered    7 WARNINGs and   4 COMMENTs to log file.