.Version 7.4.3 of ABINIT

 ABINIT is a project of the Universite Catholique de Louvain,
 Corning Inc. and other collaborators, see ~abinit/doc/developers/contributors.txt .
 Please read ~abinit/doc/users/acknowledgments.html for suggested
 acknowledgments of the ABINIT effort.

.Starting date : Mon  4 Jun 2018.
- ( at 13h01 )

 herald :  WARNING -
  The starting date is more than 3 years after the initial release
  of this version of ABINIT, namely Aug 2013.
  This version of ABINIT is not supported anymore.
  Action : please, switch to a more recent version of ABINIT.
- input  file    -> tbase4_6.in
- output file    -> tbase4_6.out
- root for input  files -> tbase4_xi
- root for output files -> tbase4_xo

 DATASET    1 : space group P4/m m m (#123); Bravais tP (primitive tetrag.)
   intxc =         0  ionmov =         2    iscf =         7 xclevel =         1
  lmnmax =         3   lnmax =         3   mband =         7  mffmem =         1
P  mgfft =        45   mkmem =         6 mpssoang=         3     mpw =       378
  mqgrid =      3001   natom =         3    nfft =      6480    nkpt =         6
  nloalg =         4  nspden =         1 nspinor =         1  nsppol =         1
    nsym =        16  n1xccc =         0  ntypat =         1  occopt =         4
  Rough estimation (10% accuracy) of disk space for files :

 DATASET    2 : space group P4/m m m (#123); Bravais tP (primitive tetrag.)
   intxc =         0  ionmov =         2    iscf =         7 xclevel =         1
  lmnmax =         3   lnmax =         3   mband =         7  mffmem =         1
P  mgfft =        50   mkmem =         6 mpssoang=         3     mpw =       452
  mqgrid =      3001   natom =         3    nfft =      7200    nkpt =         6
  nloalg =         4  nspden =         1 nspinor =         1  nsppol =         1
    nsym =        16  n1xccc =         0  ntypat =         1  occopt =         4
  Rough estimation (10% accuracy) of disk space for files :

------------- Echo of variables that govern the present computation ------------
-
- outvars: echo of selected default values
-   accesswff0 =  0 , fftalg0 =112 , wfoptalg0 =  0
-
- outvars: echo of global parameters not present in the input file
-  max_nthreads =    0
-
 -outvars: echo values of preprocessed input variables --------
            acell      7.5055909000E+00  7.5055909000E+00  7.5055909000E+00 Bohr
              amu      2.69815390E+01
             ecut      6.00000000E+00 Hartree
           ionmov           2
           jdtset        1    2
              kpt      0.00000000E+00  1.25000000E-01  0.00000000E+00
                       0.00000000E+00  3.75000000E-01  0.00000000E+00
                       1.25000000E-01  2.50000000E-01  0.00000000E+00
                       1.25000000E-01  5.00000000E-01  0.00000000E+00
                       2.50000000E-01  3.75000000E-01  0.00000000E+00
                       3.75000000E-01  5.00000000E-01  0.00000000E+00
         kptrlatt        4   -4    0      4    4    0      0    0    1
          kptrlen      3.00223636E+01
P           mkmem           6
            natom           3
            nband           7
           ndtset           2
            ngfft1         12      12      45
            ngfft2         12      12      50
             nkpt           6
            nstep           6
             nsym          16
            ntime          10
           ntypat           1
              occ      2.000000  2.000000  2.000000  2.000000  1.000000  0.000000
                       0.000000
                       2.000000  2.000000  2.000000  2.000000  1.000000  0.000000
                       0.000000
                       2.000000  2.000000  2.000000  2.000000  1.000000  0.000000
                       0.000000
                       2.000000  2.000000  2.000000  2.000000  1.000000  0.000000
                       0.000000
                       2.000000  2.000000  2.000000  2.000000  1.000000  0.000000
                       0.000000
                       2.000000  2.000000  2.000000  2.000000  1.000000  0.000000
                       0.000000
           occopt           4
        optforces           1
            rprim1     5.0000000000E-01 -5.0000000000E-01  0.0000000000E+00
                       5.0000000000E-01  5.0000000000E-01  0.0000000000E+00
                       0.0000000000E+00  0.0000000000E+00  2.5000000000E+00
            rprim2     5.0000000000E-01 -5.0000000000E-01  0.0000000000E+00
                       5.0000000000E-01  5.0000000000E-01  0.0000000000E+00
                       0.0000000000E+00  0.0000000000E+00  3.0000000000E+00
           shiftk     -5.00000000E-01  5.00000000E-01  0.00000000E+00
          spgroup         123
           symrel      1  0  0   0  1  0   0  0  1      -1  0  0   0 -1  0   0  0 -1
                      -1  0  0   0  1  0   0  0 -1       1  0  0   0 -1  0   0  0  1
                      -1  0  0   0 -1  0   0  0  1       1  0  0   0  1  0   0  0 -1
                       1  0  0   0 -1  0   0  0 -1      -1  0  0   0  1  0   0  0  1
                       0  1  0   1  0  0   0  0  1       0 -1  0  -1  0  0   0  0 -1
                       0 -1  0   1  0  0   0  0 -1       0  1  0  -1  0  0   0  0  1
                       0 -1  0  -1  0  0   0  0  1       0  1  0   1  0  0   0  0 -1
                       0  1  0  -1  0  0   0  0 -1       0 -1  0   1  0  0   0  0  1
            tnons1     0.0000000  0.0000000  0.0000000     0.0000000  0.0000000  0.4000000
                       0.0000000  0.0000000  0.4000000     0.0000000  0.0000000  0.0000000
                       0.0000000  0.0000000  0.0000000     0.0000000  0.0000000  0.4000000
                       0.0000000  0.0000000  0.4000000     0.0000000  0.0000000  0.0000000
                       0.0000000  0.0000000  0.0000000     0.0000000  0.0000000  0.4000000
                       0.0000000  0.0000000  0.4000000     0.0000000  0.0000000  0.0000000
                       0.0000000  0.0000000  0.0000000     0.0000000  0.0000000  0.4000000
                       0.0000000  0.0000000  0.4000000     0.0000000  0.0000000  0.0000000
            tnons2     0.0000000  0.0000000  0.0000000     0.0000000  0.0000000  0.3333333
                       0.0000000  0.0000000  0.3333333     0.0000000  0.0000000  0.0000000
                       0.0000000  0.0000000  0.0000000     0.0000000  0.0000000  0.3333333
                       0.0000000  0.0000000  0.3333333     0.0000000  0.0000000  0.0000000
                       0.0000000  0.0000000  0.0000000     0.0000000  0.0000000  0.3333333
                       0.0000000  0.0000000  0.3333333     0.0000000  0.0000000  0.0000000
                       0.0000000  0.0000000  0.0000000     0.0000000  0.0000000  0.3333333
                       0.0000000  0.0000000  0.3333333     0.0000000  0.0000000  0.0000000
           toldff      5.00000000E-05
           tolmxf      5.00000000E-04
            typat      1  1  1
              wtk        0.12500    0.12500    0.25000    0.12500    0.25000    0.12500
           xangst      0.0000000000E+00  0.0000000000E+00  0.0000000000E+00
                       0.0000000000E+00  1.9858938206E+00  1.9858938206E+00
                       0.0000000000E+00  0.0000000000E+00  3.9717876413E+00
            xcart      0.0000000000E+00  0.0000000000E+00  0.0000000000E+00
                       0.0000000000E+00  3.7527954500E+00  3.7527954500E+00
                       0.0000000000E+00  0.0000000000E+00  7.5055909000E+00
             xred1     0.0000000000E+00  0.0000000000E+00  0.0000000000E+00
                      -5.0000000000E-01  5.0000000000E-01  2.0000000000E-01
                       0.0000000000E+00  0.0000000000E+00  4.0000000000E-01
             xred2     0.0000000000E+00  0.0000000000E+00  0.0000000000E+00
                      -5.0000000000E-01  5.0000000000E-01  1.6666666667E-01
                       0.0000000000E+00  0.0000000000E+00  3.3333333333E-01
            znucl       13.00000

 chkinp: Checking input parameters for consistency, jdtset=   1.

 chkinp: Checking input parameters for consistency, jdtset=   2.

== DATASET  1 ==================================================================
-   nproc =    1

 Real(R)+Recip(G) space primitive vectors, cartesian coordinates (Bohr,Bohr^-1):
 R(1)=  3.7527955 -3.7527954  0.0000000  G(1)=  0.1332340 -0.1332340  0.0000000
 R(2)=  3.7527955  3.7527955  0.0000000  G(2)=  0.1332340  0.1332340  0.0000000
 R(3)=  0.0000000  0.0000000 18.7639773  G(3)=  0.0000000  0.0000000  0.0532936
 Unit cell volume ucvol=  5.2852396E+02 bohr^3
 Angles (23,13,12)=  9.00000000E+01  9.00000000E+01  9.00000000E+01 degrees

 getcut: wavevector=  0.0000  0.0000  0.0000  ngfft=  12  12  45
         ecut(hartree)=      6.000   => boxcut(ratio)=   2.05055

--- Pseudopotential description ------------------------------------------------
- pspini: atom type   1  psp file is 13al.981214.fhi
- pspatm: opening atomic psp file    13al.981214.fhi
- Aluminum, fhi98PP : Hamann-type, LDA CA PerdewWang, l=2 local
- 13.00000   3.00000    981214                znucl, zion, pspdat
    6    7    2    2       493   0.00000      pspcod,pspxc,lmax,lloc,mmax,r2well
  No XC core correction.
  1.024700          amesh (Hamman grid)
 pspatm: epsatm=    1.36305739
         --- l  ekb(1:nproj) -->
             0    1.768744
             1    0.900554
 pspatm: atomic psp has been read  and splines computed

   3.68025494E+01                                ecore*ucvol(ha*bohr**3)

P newkpt: treating      7 bands with npw=     356 for ikpt=   1 by node    0
P newkpt: treating      7 bands with npw=     368 for ikpt=   2 by node    0
P newkpt: treating      7 bands with npw=     362 for ikpt=   3 by node    0
P newkpt: treating      7 bands with npw=     368 for ikpt=   4 by node    0
P newkpt: treating      7 bands with npw=     378 for ikpt=   5 by node    0
P newkpt: treating      7 bands with npw=     372 for ikpt=   6 by node    0

_setup2: Arith. and geom. avg. npw (full set) are     368.000     367.927

=== [ionmov= 2] Broyden-Fletcher-Goldfard-Shanno method (forces)

--- Iteration: ( 1/10) Internal Cycle: (1/1)

---SELF-CONSISTENT-FIELD CONVERGENCE--------------------------------------------

     iter   Etot(hartree)      deltaE(h)  residm     vres2    diffor    maxfor
 ETOT  1  -6.1883559736790    -6.188E+00 3.166E-03 1.753E+02 8.073E-03 8.073E-03
 ETOT  2  -6.2522171487474    -6.386E-02 2.805E-04 5.032E+00 1.204E-02 3.968E-03
 ETOT  3  -6.2525504068178    -3.333E-04 3.548E-05 5.651E+00 4.458E-04 3.522E-03
 ETOT  4  -6.2537116727769    -1.161E-03 1.729E-05 1.097E+00 5.162E-04 4.038E-03
 ETOT  5  -6.2539513598134    -2.397E-04 1.126E-05 6.501E-03 2.117E-04 4.250E-03
 ETOT  6  -6.2539524080107    -1.048E-06 1.441E-07 5.971E-05 6.359E-05 4.314E-03

 Cartesian components of stress tensor (hartree/bohr^3)
  sigma(1 1)=  1.31020188E-04  sigma(3 2)=  0.00000000E+00
  sigma(2 2)=  1.31020188E-04  sigma(3 1)=  0.00000000E+00
  sigma(3 3)= -5.45143757E-05  sigma(2 1)=  0.00000000E+00

 scprqt:  WARNING -
  nstep=    6 was not enough SCF cycles to converge;
  maximum force difference=  6.359E-05 exceeds toldff=  5.000E-05

[...]
  0.00000000000000E+00  0.00000000000000E+00  4.35441282650181E-03
 Total energy (etotal) [Ha]= -6.25590732114158E+00

 Difference of energy with previous step (new-old):
           Absolute (Ha)=-1.05581E-03
           Relative     =-1.68784E-04

 At Broyd/MD step   3, gradients are converged :
  max grad (force/stress) = 1.9339E-04 < tolmxf= 5.0000E-04 ha/bohr (free atoms)

 ----iterations are completed or convergence reached----

 Mean square residual over all n,k,spin=   2.4145E-08; max=  9.6882E-07
   0.0000  0.1250  0.0000    1  9.68821E-07 kpt; spin; max resid(k); each band:
  2.61E-10 8.90E-10 5.31E-09 6.02E-09 8.23E-09 2.37E-09 9.69E-07
   0.0000  0.3750  0.0000    1  7.82506E-10 kpt; spin; max resid(k); each band:
  1.71E-10 6.31E-10 1.67E-10 2.92E-10 9.78E-11 7.83E-10 3.18E-10
   0.1250  0.2500  0.0000    1  7.99944E-09 kpt; spin; max resid(k); each band:
  2.49E-10 6.49E-10 4.85E-09 7.32E-10 1.63E-10 1.79E-11 8.00E-09
   0.1250  0.5000  0.0000    1  7.44678E-10 kpt; spin; max resid(k); each band:
  1.57E-10 1.79E-10 6.50E-10 1.04E-11 2.03E-10 2.07E-10 7.45E-10
   0.2500  0.3750  0.0000    1  7.34648E-10 kpt; spin; max resid(k); each band:
  1.69E-10 6.04E-10 9.16E-12 2.45E-10 7.69E-11 7.35E-10 3.56E-10
   0.3750  0.5000  0.0000    1  2.54927E-10 kpt; spin; max resid(k); each band:
  1.52E-10 9.80E-12 1.56E-11 1.08E-11 8.03E-11 1.95E-10 2.55E-10
 reduced coordinates (array xred) for    3 atoms
       0.000000000000      0.000000000000     -0.010106634763
      -0.500000000000      0.500000000000      0.166666666667
       0.000000000000      0.000000000000      0.343439968096
 rms dE/dt=  2.0527E-03; max dE/dt=  4.3544E-03; dE/dt below (all hartree)
    1       0.000000000000      0.000000000000     -0.004354412827
    2       0.000000000000      0.000000000000      0.000000000000
    3       0.000000000000      0.000000000000      0.004354412827

 cartesian coordinates (angstrom) at end:
    1      0.00000000000000     0.00000000000000    -0.12042422114155
    2      0.00000000000000     1.98589382064025     1.98589382064025
    3      0.00000000000000     0.00000000000000     4.09221186242205

 cartesian forces (hartree/bohr) at end:
    1     -0.00000000000000    -0.00000000000000     0.00019338529924
    2     -0.00000000000000    -0.00000000000000    -0.00000000000000
    3     -0.00000000000000    -0.00000000000000    -0.00019338529924
 frms,max,avg= 9.1162704E-05 1.9338530E-04   0.000E+00  0.000E+00  0.000E+00 h/b

 cartesian forces (eV/Angstrom) at end:
    1     -0.00000000000000    -0.00000000000000     0.00994427107795
    2     -0.00000000000000    -0.00000000000000    -0.00000000000000
    3     -0.00000000000000    -0.00000000000000    -0.00994427107795
 frms,max,avg= 4.6877743E-03 9.9442711E-03   0.000E+00  0.000E+00  0.000E+00 e/A
 length scales=  7.505590900000  7.505590900000  7.505590900000 bohr
              =  3.971787641281  3.971787641281  3.971787641281 angstroms
 prteigrs : about to open file tbase4_xo_DS2_EIG
 Fermi (or HOMO) energy (hartree) =   0.06471   Average Vxc (hartree)=  -0.23535
 Eigenvalues (hartree) for nkpt=   6  k points:
 kpt#   1, nband=  7, wtk=  0.12500, kpt=  0.0000  0.1250  0.0000 (reduced coord)
  -0.30136  -0.22277  -0.10664   0.00444   0.13509   0.18609   0.25475
      occupation numbers for kpt#   1
   2.00000   2.00000   2.00000   2.11281   0.00525   0.00012   0.00000
 kpt#   2, nband=  7, wtk=  0.12500, kpt=  0.0000  0.3750  0.0000 (reduced coord)
  -0.21652  -0.13883  -0.05083  -0.02382   0.02420   0.08561   0.13840
      occupation numbers for kpt#   2
   2.00000   2.00000   2.00094   2.01799   2.11274   0.18073   0.00517
 kpt#   3, nband=  7, wtk=  0.25000, kpt=  0.1250  0.2500  0.0000 (reduced coord)
  -0.25875  -0.18062  -0.06489   0.04428   0.06801   0.14308   0.17598
      occupation numbers for kpt#   3
   2.00000   2.00000   2.00013   1.69350   0.70534   0.00464   0.00040
 kpt#   4, nband=  7, wtk=  0.12500, kpt=  0.1250  0.5000  0.0000 (reduced coord)
  -0.13510  -0.13096  -0.05847  -0.05423   0.04590   0.07110   0.14845
      occupation numbers for kpt#   4
   2.00000   2.00000   2.00034   2.00060   1.63573   0.58622   0.00373
 kpt#   5, nband=  7, wtk=  0.25000, kpt=  0.2500  0.3750  0.0000 (reduced coord)
  -0.17464  -0.09742  -0.01209   0.01694   0.06227   0.12471   0.15901
      occupation numbers for kpt#   5
   2.00000   2.00000   2.04590   2.14134   0.94598   0.00333   0.00193
 kpt#   6, nband=  7, wtk=  0.12500, kpt=  0.3750  0.5000  0.0000 (reduced coord)
  -0.05449  -0.05065   0.02228   0.02324   0.11458   0.12341   0.12545
      occupation numbers for kpt#   6
   2.00058   2.00096   2.12518   2.11945   0.00005   0.00286   0.00358
 Total charge density [el/Bohr^3]
,     Maximum=    3.4083E-02  at reduced coord.    0.0000    0.6667    0.0000
,Next maximum=    3.4083E-02  at reduced coord.    0.0000    0.3333    0.0000
,     Minimum=    1.2005E-05  at reduced coord.    0.5000    0.5000    0.6600
,Next minimum=    1.2424E-05  at reduced coord.    0.5000    0.4167    0.6600
,  Integrated=    9.0000E+00

 Components of total free energy (in Hartree) :

    Kinetic energy  =  2.37169874597078E+00
    Hartree energy  =  6.71331599485754E+00
    XC energy       = -2.29655016949944E+00
    Ewald energy    =  3.85355295005412E-01
    PspCore energy  =  5.80272485635873E-02
    Loc. psp. energy= -1.48551306117078E+01
    NL   psp  energy=  1.36825538730343E+00
    >>>>> Internal E= -6.25502810950650E+00

    -kT*entropy     = -8.79211635073154E-04
    >>>>>>>>> Etotal= -6.25590732114158E+00

 Other information on the energy :
    Total energy(eV)= -1.70231895508168E+02 ; Band energy (Ha)=  -6.8917959929E-01
 rms coord change=  4.7643E-03   atom, delta coord (reduced):
     1        0.000000000000      0.000000000000     -0.010106634763
     2        0.000000000000      0.000000000000      0.000000000000
     3        0.000000000000      0.000000000000      0.010106634763

 Cartesian components of stress tensor (hartree/bohr^3)
  sigma(1 1)=  1.59832234E-04  sigma(3 2)=  0.00000000E+00
  sigma(2 2)=  1.59832234E-04  sigma(3 1)=  0.00000000E+00
  sigma(3 3)=  7.00686759E-06  sigma(2 1)=  0.00000000E+00

-Cartesian components of stress tensor (GPa)         [Pressure= -3.2037E+00 GPa]
- sigma(1 1)=  4.70242589E+00  sigma(3 2)=  0.00000000E+00
- sigma(2 2)=  4.70242589E+00  sigma(3 1)=  0.00000000E+00
- sigma(3 3)=  2.06149127E-01  sigma(2 1)=  0.00000000E+00

== END DATASET(S) ==============================================================

 -outvars: echo values of variables after computation  --------
            acell      7.5055909000E+00  7.5055909000E+00  7.5055909000E+00 Bohr
              amu      2.69815390E+01
             ecut      6.00000000E+00 Hartree
           etotal1    -6.2546922455E+00
           etotal2    -6.2559073211E+00
            fcart1    -0.0000000000E+00 -0.0000000000E+00 -4.3485707659E-04
                      -0.0000000000E+00 -0.0000000000E+00 -3.6140072416E-20
                      -0.0000000000E+00 -0.0000000000E+00  4.3485707659E-04
            fcart2    -0.0000000000E+00 -0.0000000000E+00  1.9338529924E-04
                      -0.0000000000E+00 -0.0000000000E+00 -1.8070036208E-20
                      -0.0000000000E+00 -0.0000000000E+00 -1.9338529924E-04
           ionmov           2
           jdtset        1    2
              kpt      0.00000000E+00  1.25000000E-01  0.00000000E+00
                       0.00000000E+00  3.75000000E-01  0.00000000E+00
                       1.25000000E-01  2.50000000E-01  0.00000000E+00
                       1.25000000E-01  5.00000000E-01  0.00000000E+00
                       2.50000000E-01  3.75000000E-01  0.00000000E+00
                       3.75000000E-01  5.00000000E-01  0.00000000E+00
         kptrlatt        4   -4    0      4    4    0      0    0    1
          kptrlen      3.00223636E+01
P           mkmem           6
            natom           3
            nband           7
           ndtset           2
            ngfft1         12      12      45
            ngfft2         12      12      50
             nkpt           6
            nstep           6
             nsym          16
            ntime          10
           ntypat           1
              occ1     2.000000  2.000000  2.000000  2.134180  0.003200  0.000207
                       0.000000
                       2.000000  2.000000  2.000535  2.017763  2.122980  0.097121
                       0.005143
                       2.000000  2.000000  2.000131  1.476471  0.886091  0.004868
                       0.001101
                       2.000000  2.000000  2.000293  2.000454  1.662912  0.548226
                       0.002886
                       2.000000  2.000000  2.033464  2.141430  1.016895  0.004730
                       0.002616
                       2.000314  2.000565  2.131031  2.130694  0.001043  0.001421
                       0.003433
              occ2     2.000000  2.000000  2.000000  2.112806  0.005255  0.000124
                       0.000000
                       2.000000  2.000000  2.000937  2.017991  2.112735  0.180728
                       0.005166
                       2.000000  2.000000  2.000134  1.693497  0.705342  0.004641
                       0.000402
                       2.000000  2.000000  2.000336  2.000600  1.635729  0.586215
                       0.003733
                       2.000000  2.000001  2.045896  2.141342  0.945984  0.003327
                       0.001927
                       2.000579  2.000959  2.125184  2.119447  0.000053  0.002860
                       0.003576
           occopt           4
        optforces           1
            rprim1     5.0000000000E-01 -5.0000000000E-01  0.0000000000E+00
                       5.0000000000E-01  5.0000000000E-01  0.0000000000E+00
                       0.0000000000E+00  0.0000000000E+00  2.5000000000E+00
            rprim2     5.0000000000E-01 -5.0000000000E-01  0.0000000000E+00
                       5.0000000000E-01  5.0000000000E-01  0.0000000000E+00
                       0.0000000000E+00  0.0000000000E+00  3.0000000000E+00
           shiftk     -5.00000000E-01  5.00000000E-01  0.00000000E+00
          spgroup         123
           strten1     1.6884710651E-04  1.6884710651E-04 -5.8631298753E-06
                       0.0000000000E+00  0.0000000000E+00  0.0000000000E+00
           strten2     1.5983223413E-04  1.5983223413E-04  7.0068675887E-06
                       0.0000000000E+00  0.0000000000E+00  0.0000000000E+00
           symrel      1  0  0   0  1  0   0  0  1      -1  0  0   0 -1  0   0  0 -1
                      -1  0  0   0  1  0   0  0 -1       1  0  0   0 -1  0   0  0  1
                      -1  0  0   0 -1  0   0  0  1       1  0  0   0  1  0   0  0 -1
                       1  0  0   0 -1  0   0  0 -1      -1  0  0   0  1  0   0  0  1
                       0  1  0   1  0  0   0  0  1       0 -1  0  -1  0  0   0  0 -1
                       0 -1  0   1  0  0   0  0 -1       0  1  0  -1  0  0   0  0  1
                       0 -1  0  -1  0  0   0  0  1       0  1  0   1  0  0   0  0 -1
                       0  1  0  -1  0  0   0  0 -1       0 -1  0   1  0  0   0  0  1
            tnons1     0.0000000  0.0000000  0.0000000     0.0000000  0.0000000  0.4000000
                       0.0000000  0.0000000  0.4000000     0.0000000  0.0000000  0.0000000
                       0.0000000  0.0000000  0.0000000     0.0000000  0.0000000  0.4000000
                       0.0000000  0.0000000  0.4000000     0.0000000  0.0000000  0.0000000
                       0.0000000  0.0000000  0.0000000     0.0000000  0.0000000  0.4000000
                       0.0000000  0.0000000  0.4000000     0.0000000  0.0000000  0.0000000
                       0.0000000  0.0000000  0.0000000     0.0000000  0.0000000  0.4000000
                       0.0000000  0.0000000  0.4000000     0.0000000  0.0000000  0.0000000
            tnons2     0.0000000  0.0000000  0.0000000     0.0000000  0.0000000  0.3333333
                       0.0000000  0.0000000  0.3333333     0.0000000  0.0000000  0.0000000
                       0.0000000  0.0000000  0.0000000     0.0000000  0.0000000  0.3333333
                       0.0000000  0.0000000  0.3333333     0.0000000  0.0000000  0.0000000
                       0.0000000  0.0000000  0.0000000     0.0000000  0.0000000  0.3333333
                       0.0000000  0.0000000  0.3333333     0.0000000  0.0000000  0.0000000
                       0.0000000  0.0000000  0.0000000     0.0000000  0.0000000  0.3333333
                       0.0000000  0.0000000  0.3333333     0.0000000  0.0000000  0.0000000
           toldff      5.00000000E-05
           tolmxf      5.00000000E-04
            typat      1  1  1
              wtk        0.12500    0.12500    0.25000    0.12500    0.25000    0.12500
           xangst1     0.0000000000E+00  0.0000000000E+00 -8.3540076336E-02
                       0.0000000000E+00  1.9858938206E+00  1.9858938206E+00
                       0.0000000000E+00  0.0000000000E+00  4.0553277176E+00
           xangst2     0.0000000000E+00  0.0000000000E+00 -1.2042422114E-01
                       0.0000000000E+00  1.9858938206E+00  1.9858938206E+00
                       0.0000000000E+00  0.0000000000E+00  4.0922118624E+00
            xcart1     0.0000000000E+00  0.0000000000E+00 -1.5786786540E-01
                       0.0000000000E+00  3.7527954500E+00  3.7527954500E+00
                       0.0000000000E+00  0.0000000000E+00  7.6634587654E+00
            xcart2     0.0000000000E+00  0.0000000000E+00 -2.2756879772E-01
                       0.0000000000E+00  3.7527954500E+00  3.7527954500E+00
                       0.0000000000E+00  0.0000000000E+00  7.7331596977E+00
             xred1     0.0000000000E+00  0.0000000000E+00 -8.4133477297E-03
                      -5.0000000000E-01  5.0000000000E-01  2.0000000000E-01
                       0.0000000000E+00  0.0000000000E+00  4.0841334773E-01
             xred2     0.0000000000E+00  0.0000000000E+00 -1.0106634763E-02
                      -5.0000000000E-01  5.0000000000E-01  1.6666666667E-01
                       0.0000000000E+00  0.0000000000E+00  3.4343996810E-01
            znucl       13.00000

- Timing analysis has been suppressed with timopt=0

 Suggested references for the acknowledgment of ABINIT usage.

 [1] Ab initio pseudopotentials for electronic structure calculations of poly-atomic systems,
 using density-functional theory.
 M. Fuchs, M. Scheffler, Comput. Phys. Commun. 119, 67 (1999).
 Comment : Some pseudopotential generated using the FHI code were used.

 [2] ABINIT : First-principles approach of materials and nanosystem properties.
 X. Gonze, B. Amadon, P.-M. Anglade, J.-M. Beuken, F. Bottin, P. Boulanger, F. Bruneval,
 D. Caliste, R. Caracas, M. Cote, T. Deutsch, L. Genovese, Ph. Ghosez, M. Giantomassi
 S. Goedecker, D.R. Hamann, P. Hermet, F. Jollet, G. Jomard, S. Leroux, M. Mancini, S. Mazevet,
 M.J.T. Oliveira, G. Onida, Y. Pouillon, T. Rangel, G.-M. Rignanese, D. Sangalli, R. Shaltaf,
 M. Torrent, M.J. Verstraete, G. Zerah, J.W. Zwanziger
 Computer Phys. Comm. 180, 2582-2615 (2009).
 Comment : the third generic paper describing the ABINIT project.
 Note that a version of this paper, that is not formatted for Computer Phys. Comm.
 The licence allows the authors to put it on the Web.

 [3] A brief introduction to the ABINIT software package.
 X. Gonze, G.-M. Rignanese, M. Verstraete, J.-M. Beuken, Y. Pouillon, R. Caracas, F. Jollet,
 M. Torrent, G. Zerah, M. Mikami, Ph. Ghosez, M. Veithen, J.-Y. Raty, V. Olevano, F. Bruneval,
 L. Reining, R. Godby, G. Onida, D.R. Hamann, and D.C. Allan.
 Z. Kristallogr. 220, 558-562 (2005).
 Comment : the second generic paper describing the ABINIT project. Note that this paper
 should be cited especially if you are using the GW part of ABINIT, as several authors
 of this part are not in the list of authors of the first or third paper.
 Note that it should not redistributed (Copyright by Oldenburg Wissenshaftverlag,
 the licence allows the authors to put it on the Web).

 And optionally :

 [4] First-principles computation of material properties : the ABINIT software project.
 X. Gonze, J.-M. Beuken, R. Caracas, F. Detraux, M. Fuchs, G.-M. Rignanese, L. Sindic,
 M. Verstraete, G. Zerah, F. Jollet, M. Torrent, A. Roy, M. Mikami, Ph. Ghosez, J.-Y. Raty, D.C. Allan.
 Comment : the original paper describing the ABINIT project.

 [5] Fast radix 2, 3, 4 and 5 kernels for Fast Fourier Transformations
 on computers with overlapping multiply-add instructions.
 S. Goedecker, SIAM J. on Scientific Computing 18, 1605 (1997).
-

 Calculation completed.
.Delivered    7 WARNINGs and   4 COMMENTs to log file.