.Version 7.0.5 of ABINIT

 ABINIT is a project of the Universite Catholique de Louvain,
 Corning Inc. and other collaborators, see ~abinit/doc/developers/contributors.txt .
 Please read ~abinit/doc/users/acknowledgments.html for suggested
 acknowledgments of the ABINIT effort.

.Starting date : Wed 13 Jun 2018.
- ( at 20h32 )

 herald :  WARNING -
  The starting date is more than 3 years after the initial release
  of this version of ABINIT, namely Jan 2013.
  This version of ABINIT is not supported anymore.
  Action : please, switch to a more recent version of ABINIT.
- input  file    -> feni.in
- output file    -> feni.out
- root for input  files -> fenii
- root for output files -> fenio

 DATASET    1 : space group Pm -3 m (#221); Bravais cP (primitive cubic)
   intxc =         0  ionmov =         0    iscf =         7 xclevel =         2
  lmnmax =         2   lnmax =         2   mband =        45  mffmem =         1
P  mgfft =        48   mkmem =        16 mpssoang=         3     mpw =      6672
  mqgrid =      3001   natom =         4    nfft =    110592    nkpt =        16
  nloalg =         4  nspden =         1 nspinor =         1  nsppol =         1
    nsym =        48  n1xccc =      2501  ntypat =         2  occopt =         7
  Rough estimation (10% accuracy) of disk space for files :

 DATASET    2 : space group Pm -3 m (#221); Bravais cP (primitive cubic)
   intxc =         0  ionmov =         0    iscf =        -2 xclevel =         2
  lmnmax =         2   lnmax =         2   mband =        45  mffmem =         1
P  mgfft =        48   mkmem =        61 mpssoang=         3     mpw =      6713
  mqgrid =      3001   natom =         4    nfft =    110592    nkpt =        61
  nloalg =         4  nspden =         1 nspinor =         1  nsppol =         1
    nsym =        48  n1xccc =      2501  ntypat =         2  occopt =         7
  Rough estimation (10% accuracy) of disk space for files :

------------- Echo of variables that govern the present computation ------------
-
- outvars: echo of selected default values
-   accesswff0 =  0 , fftalg0 =112 , wfoptalg0 =  0
-
- outvars: echo of global parameters not present in the input file
-  max_nthreads =    0
-
 -outvars: echo values of preprocessed input variables --------
            acell      6.6901000000E+00  6.6901000000E+00  6.6901000000E+00 Bohr
              amu      5.58470000E+01  5.86900000E+01
             ecut      6.00000000E+01 Hartree
           ecutsm      5.00000000E-01 Hartree
           enunit           1
           getden1          0
           getden2         -1
             iscf1          7
             iscf2         -2
           istwfk2       2    0    0    0    0    0    0    0    0    0
                         6    0    0    0    0    0    0    0    0    0
                         7    0    0    0    0    0    0    0    0    0
                         0    0    0    0    0    0    0    0    0    0
                         0    0    0    0    0    0    0    0    0    0
                       outvar_i_n : Printing only first  50 k-points.
              ixc          11
           jdtset        1    2
              kpt1     0.00000000E+00  0.00000000E+00  1.25000000E-01
                       0.00000000E+00  0.00000000E+00  3.75000000E-01
                       1.25000000E-01  0.00000000E+00  2.50000000E-01
                       1.25000000E-01  1.25000000E-01  1.25000000E-01
                       1.25000000E-01  0.00000000E+00  5.00000000E-01
                       2.50000000E-01  0.00000000E+00  3.75000000E-01
                       1.25000000E-01  1.25000000E-01  3.75000000E-01
                       2.50000000E-01  1.25000000E-01  2.50000000E-01
                       3.75000000E-01  0.00000000E+00  5.00000000E-01
                       2.50000000E-01  1.25000000E-01  5.00000000E-01
                       3.75000000E-01  1.25000000E-01  3.75000000E-01
                       2.50000000E-01  2.50000000E-01  3.75000000E-01
                       5.00000000E-01  1.25000000E-01  5.00000000E-01
                       3.75000000E-01  2.50000000E-01  5.00000000E-01
                       3.75000000E-01  3.75000000E-01  3.75000000E-01
                       5.00000000E-01  3.75000000E-01  5.00000000E-01
              kpt2     0.00000000E+00  0.00000000E+00  0.00000000E+00
                       0.00000000E+00  5.00000000E-02  0.00000000E+00
                       0.00000000E+00  1.00000000E-01  0.00000000E+00
                       0.00000000E+00  1.50000000E-01  0.00000000E+00
                       0.00000000E+00  2.00000000E-01  0.00000000E+00
                       0.00000000E+00  2.50000000E-01  0.00000000E+00
                       0.00000000E+00  3.00000000E-01  0.00000000E+00
                       0.00000000E+00  3.50000000E-01  0.00000000E+00
                       0.00000000E+00  4.00000000E-01  0.00000000E+00
                       0.00000000E+00  4.50000000E-01  0.00000000E+00
                       0.00000000E+00  5.00000000E-01  0.00000000E+00
                       5.00000000E-02  5.00000000E-01  0.00000000E+00
                       1.00000000E-01  5.00000000E-01  0.00000000E+00
                       1.50000000E-01  5.00000000E-01  0.00000000E+00
                       2.00000000E-01  5.00000000E-01  0.00000000E+00
                       2.50000000E-01  5.00000000E-01  0.00000000E+00
                       3.00000000E-01  5.00000000E-01  0.00000000E+00
                       3.50000000E-01  5.00000000E-01  0.00000000E+00
                       4.00000000E-01  5.00000000E-01  0.00000000E+00
                       4.50000000E-01  5.00000000E-01  0.00000000E+00
                       5.00000000E-01  5.00000000E-01  0.00000000E+00
                       5.50000000E-01  5.50000000E-01  1.00000000E-01
                       6.00000000E-01  6.00000000E-01  2.00000000E-01
                       6.50000000E-01  6.50000000E-01  3.00000000E-01
                       7.00000000E-01  7.00000000E-01  4.00000000E-01
                       7.50000000E-01  7.50000000E-01  5.00000000E-01
                       8.00000000E-01  8.00000000E-01  6.00000000E-01
                       8.50000000E-01  8.50000000E-01  7.00000000E-01
                       9.00000000E-01  9.00000000E-01  8.00000000E-01
                       9.50000000E-01  9.50000000E-01  9.00000000E-01
                       1.00000000E+00  1.00000000E+00  1.00000000E+00
                       9.75000000E-01  9.75000000E-01  9.75000000E-01
                       9.50000000E-01  9.50000000E-01  9.50000000E-01
                       9.25000000E-01  9.25000000E-01  9.25000000E-01
                       9.00000000E-01  9.00000000E-01  9.00000000E-01
                       8.75000000E-01  8.75000000E-01  8.75000000E-01
                       8.50000000E-01  8.50000000E-01  8.50000000E-01
                       8.25000000E-01  8.25000000E-01  8.25000000E-01
                       8.00000000E-01  8.00000000E-01  8.00000000E-01
                       7.75000000E-01  7.75000000E-01  7.75000000E-01
                       7.50000000E-01  7.50000000E-01  7.50000000E-01
                       7.25000000E-01  7.25000000E-01  7.25000000E-01
                       7.00000000E-01  7.00000000E-01  7.00000000E-01
                       6.75000000E-01  6.75000000E-01  6.75000000E-01
                       6.50000000E-01  6.50000000E-01  6.50000000E-01
                       6.25000000E-01  6.25000000E-01  6.25000000E-01
                       6.00000000E-01  6.00000000E-01  6.00000000E-01
                       5.75000000E-01  5.75000000E-01  5.75000000E-01
                       5.50000000E-01  5.50000000E-01  5.50000000E-01
                       5.25000000E-01  5.25000000E-01  5.25000000E-01
                       outvar_i_n : Printing only first  50 k-points.
           kptopt1          1
           kptopt2         -5
         kptrlatt        4   -4   -4     -4    4   -4      4    4    4
          kptrlen1     4.63503724E+01
          kptrlen2     3.00000000E+01
P           mkmem1         16
P           mkmem2         61
            natom           4
            nband1         45
            nband2         45
           nbdbuf1          0
           nbdbuf2          2
           ndtset           2
            ngfft          48      48      48
             nkpt1         16
             nkpt2         61
            nstep          70
             nsym          48
           ntypat           2
              occ      2.000000  2.000000  2.000000  2.000000  2.000000  2.000000
                       2.000000  2.000000  2.000000  2.000000  2.000000  2.000000
                       2.000000  2.000000  2.000000  2.000000  2.000000  2.000000
                       2.000000  0.000000  0.000000  0.000000  0.000000  0.000000
                       0.000000  0.000000  0.000000  0.000000  0.000000  0.000000
                       0.000000  0.000000  0.000000  0.000000  0.000000  0.000000
                       0.000000  0.000000  0.000000  0.000000  0.000000  0.000000
                       0.000000  0.000000  0.000000
                       2.000000  2.000000  2.000000  2.000000  2.000000  2.000000
                       2.000000  2.000000  2.000000  2.000000  2.000000  2.000000
                       2.000000  2.000000  2.000000  2.000000  2.000000  2.000000
                       2.000000  0.000000  0.000000  0.000000  0.000000  0.000000
                       0.000000  0.000000  0.000000  0.000000  0.000000  0.000000
                       0.000000  0.000000  0.000000  0.000000  0.000000  0.000000
                       0.000000  0.000000  0.000000  0.000000  0.000000  0.000000
                       0.000000  0.000000  0.000000
                       2.000000  2.000000  2.000000  2.000000  2.000000  2.000000
                       2.000000  2.000000  2.000000  2.000000  2.000000  2.000000
                       2.000000  2.000000  2.000000  2.000000  2.000000  2.000000
                       2.000000  0.000000  0.000000  0.000000  0.000000  0.000000
                       0.000000  0.000000  0.000000  0.000000  0.000000  0.000000
                       0.000000  0.000000  0.000000  0.000000  0.000000  0.000000
                       0.000000  0.000000  0.000000  0.000000  0.000000  0.000000
                       0.000000  0.000000  0.000000
                       2.000000  2.000000  2.000000  2.000000  2.000000  2.000000
                       2.000000  2.000000  2.000000  2.000000  2.000000  2.000000
                       2.000000  2.000000  2.000000  2.000000  2.000000  2.000000
                       2.000000  0.000000  0.000000  0.000000  0.000000  0.000000
                       0.000000  0.000000  0.000000  0.000000  0.000000  0.000000
                       0.000000  0.000000  0.000000  0.000000  0.000000  0.000000
                       0.000000  0.000000  0.000000  0.000000  0.000000  0.000000
                       0.000000  0.000000  0.000000
                       2.000000  2.000000  2.000000  2.000000  2.000000  2.000000
                       2.000000  2.000000  2.000000  2.000000  2.000000  2.000000
[...]
                       0.00000000E+00  2.00000000E-01  0.00000000E+00
                       0.00000000E+00  2.50000000E-01  0.00000000E+00
                       0.00000000E+00  3.00000000E-01  0.00000000E+00
                       0.00000000E+00  3.50000000E-01  0.00000000E+00
                       0.00000000E+00  4.00000000E-01  0.00000000E+00
                       0.00000000E+00  4.50000000E-01  0.00000000E+00
                       0.00000000E+00  5.00000000E-01  0.00000000E+00
                       5.00000000E-02  5.00000000E-01  0.00000000E+00
                       1.00000000E-01  5.00000000E-01  0.00000000E+00
                       1.50000000E-01  5.00000000E-01  0.00000000E+00
                       2.00000000E-01  5.00000000E-01  0.00000000E+00
                       2.50000000E-01  5.00000000E-01  0.00000000E+00
                       3.00000000E-01  5.00000000E-01  0.00000000E+00
                       3.50000000E-01  5.00000000E-01  0.00000000E+00
                       4.00000000E-01  5.00000000E-01  0.00000000E+00
                       4.50000000E-01  5.00000000E-01  0.00000000E+00
                       5.00000000E-01  5.00000000E-01  0.00000000E+00
                       5.50000000E-01  5.50000000E-01  1.00000000E-01
                       6.00000000E-01  6.00000000E-01  2.00000000E-01
                       6.50000000E-01  6.50000000E-01  3.00000000E-01
                       7.00000000E-01  7.00000000E-01  4.00000000E-01
                       7.50000000E-01  7.50000000E-01  5.00000000E-01
                       8.00000000E-01  8.00000000E-01  6.00000000E-01
                       8.50000000E-01  8.50000000E-01  7.00000000E-01
                       9.00000000E-01  9.00000000E-01  8.00000000E-01
                       9.50000000E-01  9.50000000E-01  9.00000000E-01
                       1.00000000E+00  1.00000000E+00  1.00000000E+00
                       9.75000000E-01  9.75000000E-01  9.75000000E-01
                       9.50000000E-01  9.50000000E-01  9.50000000E-01
                       9.25000000E-01  9.25000000E-01  9.25000000E-01
                       9.00000000E-01  9.00000000E-01  9.00000000E-01
                       8.75000000E-01  8.75000000E-01  8.75000000E-01
                       8.50000000E-01  8.50000000E-01  8.50000000E-01
                       8.25000000E-01  8.25000000E-01  8.25000000E-01
                       8.00000000E-01  8.00000000E-01  8.00000000E-01
                       7.75000000E-01  7.75000000E-01  7.75000000E-01
                       7.50000000E-01  7.50000000E-01  7.50000000E-01
                       7.25000000E-01  7.25000000E-01  7.25000000E-01
                       7.00000000E-01  7.00000000E-01  7.00000000E-01
                       6.75000000E-01  6.75000000E-01  6.75000000E-01
                       6.50000000E-01  6.50000000E-01  6.50000000E-01
                       6.25000000E-01  6.25000000E-01  6.25000000E-01
                       6.00000000E-01  6.00000000E-01  6.00000000E-01
                       5.75000000E-01  5.75000000E-01  5.75000000E-01
                       5.50000000E-01  5.50000000E-01  5.50000000E-01
                       5.25000000E-01  5.25000000E-01  5.25000000E-01
                       outvar_i_n : Printing only first  50 k-points.
           kptopt1          1
           kptopt2         -5
         kptrlatt        4   -4   -4     -4    4   -4      4    4    4
          kptrlen1     4.63503724E+01
          kptrlen2     3.00000000E+01
P           mkmem1         16
P           mkmem2         61
            natom           4
            nband1         45
            nband2         45
           nbdbuf1          0
           nbdbuf2          2
           ndtset           2
            ngfft          48      48      48
             nkpt1         16
             nkpt2         61
            nstep          70
             nsym          48
           ntypat           2
              occ      2.000000  2.000000  2.000000  2.000000  2.000000  2.000000
                       2.000000  1.998085  1.996521  1.996521  1.885757  1.851768
                       1.611455  1.611455  1.589048  1.322045  0.874731  0.820279
                       0.703241  0.703241  0.407926  0.018329  0.000004  0.000004
                       0.000000  0.000000  0.000000  0.000000  0.000000  0.000000
                       0.000000  0.000000  0.000000  0.000000  0.000000  0.000000
                       0.000000  0.000000  0.000000  0.000000  0.000000  0.000000
                       0.000000  0.000000  0.000000
                       2.000000  2.000000  2.000000  2.000000  1.999999  1.999998
                       1.999998  1.999872  1.998060  1.998060  1.977398  1.975309
                       1.975309  1.943011  1.889572  1.784388  1.563339  1.563339
                       1.321214  1.238269  1.118800  0.418458  0.000000  0.000000
                       0.000000  0.000000  0.000000  0.000000  0.000000  0.000000
                       0.000000  0.000000  0.000000  0.000000  0.000000  0.000000
                       0.000000  0.000000  0.000000  0.000000  0.000000  0.000000
                       0.000000  0.000000  0.000000
                       2.000000  2.000000  2.000000  2.000000  2.000000  2.000000
                       2.000000  1.999404  1.994037  1.993012  1.973135  1.958356
                       1.937992  1.874433  1.758946  1.736926  1.473706  1.187893
                       1.088778  1.033541  0.551533  0.182384  0.000000  0.000000
                       0.000000  0.000000  0.000000  0.000000  0.000000  0.000000
                       0.000000  0.000000  0.000000  0.000000  0.000000  0.000000
                       0.000000  0.000000  0.000000  0.000000  0.000000  0.000000
                       0.000000  0.000000  0.000000
                       2.000000  2.000000  2.000000  2.000000  2.000000  2.000000
                       2.000000  1.998777  1.995364  1.995364  1.888649  1.888649
                       1.873069  1.873069  1.730010  1.529446  1.404101  1.034918
                       1.034918  0.669021  0.669021  0.000061  0.000061  0.000020
                       0.000000  0.000000  0.000000  0.000000  0.000000  0.000000
                       0.000000  0.000000  0.000000  0.000000  0.000000  0.000000
                       0.000000  0.000000  0.000000  0.000000  0.000000  0.000000
                       0.000000  0.000000  0.000000
                       2.000000  2.000000  2.000000  1.999999  1.999993  1.999979
                       1.999973  1.999957  1.999934  1.999877  1.993742  1.992039
                       1.958202  1.932956  1.918449  1.869261  1.755656  1.452969
                       1.368352  1.362092  1.150179  0.552919  0.000000  0.000000
                       0.000000  0.000000  0.000000  0.000000  0.000000  0.000000
                       0.000000  0.000000  0.000000  0.000000  0.000000  0.000000
                       0.000000  0.000000  0.000000  0.000000  0.000000  0.000000
                       0.000000  0.000000  0.000000
                       2.000000  2.000000  2.000000  1.999999  1.999998  1.999997
                       1.999993  1.999890  1.999774  1.998734  1.998071  1.993396
                       1.974403  1.955914  1.913720  1.818515  1.748700  1.355761
                       1.344330  1.254594  0.927144  0.286756  0.000007  0.000000
                       0.000000  0.000000  0.000000  0.000000  0.000000  0.000000
                       0.000000  0.000000  0.000000  0.000000  0.000000  0.000000
                       0.000000  0.000000  0.000000  0.000000  0.000000  0.000000
                       0.000000  0.000000  0.000000
                       2.000000  2.000000  2.000000  2.000000  1.999998  1.999997
                       1.999997  1.999869  1.999142  1.998711  1.992726  1.988659
                       1.983033  1.908283  1.907117  1.890591  1.579646  1.463528
                       1.346886  1.044868  0.794963  0.610451  0.000000  0.000000
                       0.000000  0.000000  0.000000  0.000000  0.000000  0.000000
                       0.000000  0.000000  0.000000  0.000000  0.000000  0.000000
                       0.000000  0.000000  0.000000  0.000000  0.000000  0.000000
                       0.000000  0.000000  0.000000
                       2.000000  2.000000  2.000000  2.000000  1.999999  1.999999
                       1.999999  1.999668  1.997316  1.996051  1.992436  1.991084
                       1.975474  1.933550  1.908332  1.847740  1.544360  1.408765
                       1.362583  0.906616  0.777939  0.004291  0.000702  0.000000
                       0.000000  0.000000  0.000000  0.000000  0.000000  0.000000
[...]
                       1.999620  1.997027  1.996285  1.996285  1.993488  1.993488
                       1.991924  1.983513  1.983513  1.945288  1.493891  1.270222
                       1.270222  0.823665  0.823665  0.023418  0.023418  0.013379
                       0.000000  0.000000  0.000000  0.000000  0.000000  0.000000
                       0.000000  0.000000  0.000000  0.000000  0.000000  0.000000
                       0.000000  0.000000  0.000000  0.000000  0.000000  0.000000
                       0.000000  0.000000  0.000000
                       2.000000  2.000000  2.000000  2.000000  1.999206  1.999206
                       1.998716  1.998096  1.997113  1.997113  1.995602  1.992683
                       1.899926  1.899926  1.888841  1.848432  1.569598  1.012457
                       1.012457  0.784799  0.527954  0.527954  0.205936  0.178252
                       0.000000  0.000000  0.000000  0.000000  0.000000  0.000000
                       0.000000  0.000000  0.000000  0.000000  0.000000  0.000000
                       0.000000  0.000000  0.000000  0.000000  0.000000  0.000000
                       0.000000  0.000000  0.000000
           occopt           7
           shiftk1    -5.00000000E-01 -5.00000000E-01  5.00000000E-01
           shiftk2     5.00000000E-01  5.00000000E-01  5.00000000E-01
          spgroup         221
           strten1    -3.7083009768E-07 -3.7083009766E-07 -3.7083009756E-07
                       0.0000000000E+00  0.0000000000E+00  0.0000000000E+00
           symrel      1  0  0   0  1  0   0  0  1      -1  0  0   0 -1  0   0  0 -1
                      -1  0  0   0  1  0   0  0 -1       1  0  0   0 -1  0   0  0  1
                      -1  0  0   0 -1  0   0  0  1       1  0  0   0  1  0   0  0 -1
                       1  0  0   0 -1  0   0  0 -1      -1  0  0   0  1  0   0  0  1
                       0  1  0   1  0  0   0  0  1       0 -1  0  -1  0  0   0  0 -1
                       0 -1  0   1  0  0   0  0 -1       0  1  0  -1  0  0   0  0  1
                       0 -1  0  -1  0  0   0  0  1       0  1  0   1  0  0   0  0 -1
                       0  1  0  -1  0  0   0  0 -1       0 -1  0   1  0  0   0  0  1
                       0  0  1   1  0  0   0  1  0       0  0 -1  -1  0  0   0 -1  0
                       0  0 -1   1  0  0   0 -1  0       0  0  1  -1  0  0   0  1  0
                       0  0 -1  -1  0  0   0  1  0       0  0  1   1  0  0   0 -1  0
                       0  0  1  -1  0  0   0 -1  0       0  0 -1   1  0  0   0  1  0
                       1  0  0   0  0  1   0  1  0      -1  0  0   0  0 -1   0 -1  0
                      -1  0  0   0  0  1   0 -1  0       1  0  0   0  0 -1   0  1  0
                      -1  0  0   0  0 -1   0  1  0       1  0  0   0  0  1   0 -1  0
                       1  0  0   0  0 -1   0 -1  0      -1  0  0   0  0  1   0  1  0
                       0  1  0   0  0  1   1  0  0       0 -1  0   0  0 -1  -1  0  0
                       0 -1  0   0  0  1  -1  0  0       0  1  0   0  0 -1   1  0  0
                       0 -1  0   0  0 -1   1  0  0       0  1  0   0  0  1  -1  0  0
                       0  1  0   0  0 -1  -1  0  0       0 -1  0   0  0  1   1  0  0
                       0  0  1   0  1  0   1  0  0       0  0 -1   0 -1  0  -1  0  0
                       0  0 -1   0  1  0  -1  0  0       0  0  1   0 -1  0   1  0  0
                       0  0 -1   0 -1  0   1  0  0       0  0  1   0  1  0  -1  0  0
                       0  0  1   0 -1  0  -1  0  0       0  0 -1   0  1  0   1  0  0
           tolvrs1     1.00000000E-18
           tolvrs2     0.00000000E+00
           tolwfr1     0.00000000E+00
           tolwfr2     1.00000000E-12
           tsmear      3.58000000E-02 Hartree
            typat      1  2  2  2
              wtk1       0.02344    0.02344    0.09375    0.03125    0.04688    0.09375
                         0.09375    0.09375    0.04688    0.09375    0.09375    0.09375
                         0.02344    0.09375    0.03125    0.02344
              wtk2       1.00000    1.00000    1.00000    1.00000    1.00000    1.00000
                         1.00000    1.00000    1.00000    1.00000    1.00000    1.00000
                         1.00000    1.00000    1.00000    1.00000    1.00000    1.00000
                         1.00000    1.00000    1.00000    1.00000    1.00000    1.00000
                         1.00000    1.00000    1.00000    1.00000    1.00000    1.00000
                         1.00000    1.00000    1.00000    1.00000    1.00000    1.00000
                         1.00000    1.00000    1.00000    1.00000    1.00000    1.00000
                         1.00000    1.00000    1.00000    1.00000    1.00000    1.00000
                         1.00000    1.00000
                       outvars : Printing only first  50 k-points.
           xangst      0.0000000000E+00  0.0000000000E+00  0.0000000000E+00
                       1.7701242216E+00  1.7701242216E+00  0.0000000000E+00
                       0.0000000000E+00  1.7701242216E+00  1.7701242216E+00
                       1.7701242216E+00  0.0000000000E+00  1.7701242216E+00
            xcart      0.0000000000E+00  0.0000000000E+00  0.0000000000E+00
                       3.3450500000E+00  3.3450500000E+00  0.0000000000E+00
                       0.0000000000E+00  3.3450500000E+00  3.3450500000E+00
                       3.3450500000E+00  0.0000000000E+00  3.3450500000E+00
             xred      0.0000000000E+00  0.0000000000E+00  0.0000000000E+00
                       5.0000000000E-01  5.0000000000E-01  0.0000000000E+00
                       0.0000000000E+00  5.0000000000E-01  5.0000000000E-01
                       5.0000000000E-01  0.0000000000E+00  5.0000000000E-01
            znucl       26.00000   28.00000

- Timing analysis has been suppressed with timopt=0

 Suggested references for the acknowledgment of ABINIT usage.

 [1] ABINIT : First-principles approach of materials and nanosystem properties.
 X. Gonze, B. Amadon, P.-M. Anglade, J.-M. Beuken, F. Bottin, P. Boulanger, F. Bruneval,
 D. Caliste, R. Caracas, M. Cote, T. Deutsch, L. Genovese, Ph. Ghosez, M. Giantomassi
 S. Goedecker, D.R. Hamann, P. Hermet, F. Jollet, G. Jomard, S. Leroux, M. Mancini, S. Mazevet,
 M.J.T. Oliveira, G. Onida, Y. Pouillon, T. Rangel, G.-M. Rignanese, D. Sangalli, R. Shaltaf,
 M. Torrent, M.J. Verstraete, G. Zerah, J.W. Zwanziger
 Computer Phys. Comm. 180, 2582-2615 (2009).
 Comment : the third generic paper describing the ABINIT project.
 Note that a version of this paper, that is not formatted for Computer Phys. Comm.
 The licence allows the authors to put it on the Web.

 [2] A brief introduction to the ABINIT software package.
 X. Gonze, G.-M. Rignanese, M. Verstraete, J.-M. Beuken, Y. Pouillon, R. Caracas, F. Jollet,
 M. Torrent, G. Zerah, M. Mikami, Ph. Ghosez, M. Veithen, J.-Y. Raty, V. Olevano, F. Bruneval,
 L. Reining, R. Godby, G. Onida, D.R. Hamann, and D.C. Allan.
 Z. Kristallogr. 220, 558-562 (2005).
 Comment : the second generic paper describing the ABINIT project. Note that this paper
 should be cited especially if you are using the GW part of ABINIT, as several authors
 of this part are not in the list of authors of the first or third paper.
 Note that it should not redistributed (Copyright by Oldenburg Wissenshaftverlag,
 the licence allows the authors to put it on the Web).

 And optionally :

 [3] First-principles computation of material properties : the ABINIT software project.
 X. Gonze, J.-M. Beuken, R. Caracas, F. Detraux, M. Fuchs, G.-M. Rignanese, L. Sindic,
 M. Verstraete, G. Zerah, F. Jollet, M. Torrent, A. Roy, M. Mikami, Ph. Ghosez, J.-Y. Raty, D.C. Allan.
 Comment : the original paper describing the ABINIT project.

 [4] Fast radix 2, 3, 4 and 5 kernels for Fast Fourier Transformations
 on computers with overlapping multiply-add instructions.
 S. Goedecker, SIAM J. on Scientific Computing 18, 1605 (1997).
-

 Calculation completed.
.Delivered   10 WARNINGs and   4 COMMENTs to log file.