.Version 7.4.3 of ABINIT

 ABINIT is a project of the Universite Catholique de Louvain,
 Corning Inc. and other collaborators, see ~abinit/doc/developers/contributors.txt .
 Please read ~abinit/doc/users/acknowledgments.html for suggested
 acknowledgments of the ABINIT effort.

.Starting date : Mon  4 Jun 2018.
- ( at 14h20 )

 herald :  WARNING -
  The starting date is more than 3 years after the initial release
  of this version of ABINIT, namely Aug 2013.
  This version of ABINIT is not supported anymore.
  Action : please, switch to a more recent version of ABINIT.

 herald :  WARNING -
  The starting date is more than 3 years after the initial release
  of this version of ABINIT, namely Aug 2013.
  This version of ABINIT is not supported anymore.
  Action : please, switch to a more recent version of ABINIT.

 === Build Information ===
  Version       : 7.4.3
  Build target  : i686_cygwin_gnu4.7
  Build date    : 20131019

 === Optimizations ===
  Debug level        : no
  Optimization level : standard
  Architecture       : _

  Parallel build : yes
  Parallel I/O   : no
  Time tracing   : no
  GPU support    : no

 === Connectors / Fallbacks ===
  Connectors on : yes
  Fallbacks on  : yes
  FFT flavor    : none
  LINALG flavor : netlib
  MATH flavor   : none
  TIMER flavor  : abinit
  TRIO flavor   : netcdf+etsf_io

 === Experimental features ===
  Bindings            : no
  Exports             : no
  GW double-precision : yes

 === Bazaar branch information ===
  Branch ID : xavier.gonze@uclouvain.be-20131019063522-8wupmx7xtg5stywd
  Revision  : 490
  Committed : 0

 Default optimizations:
   --- None ---

 CPP options activated during the build:

                    CC_GNU                   CXX_GNU                    FC_GNU

           HAVE_BZR_BRANCH          HAVE_DFT_ATOMPAW           HAVE_DFT_BIGDFT

      HAVE_FC_COMMAND_LINE        HAVE_FC_CONTIGUOUS           HAVE_FC_CPUTIME

              HAVE_FC_EXIT             HAVE_FC_FLUSH             HAVE_FC_GAMMA

            HAVE_FC_GETENV          HAVE_FC_INT_QUAD             HAVE_FC_IOMSG

     HAVE_FC_ISO_C_BINDING        HAVE_FC_LONG_LINES              HAVE_FC_NULL

         HAVE_FC_STREAM_IO          HAVE_FORTRAN2003               HAVE_LINALG

        HAVE_LINALG_SERIAL                  HAVE_MPI                 HAVE_MPI1

 HAVE_MPI_TYPE_CREATE_S...           HAVE_OS_WINDOWS                HAVE_TIMER

         HAVE_TIMER_ABINIT            HAVE_TIMER_MPI         HAVE_TIMER_SERIAL

         HAVE_TRIO_ETSF_IO          HAVE_TRIO_NETCDF

- input  file    -> tdftu_4.in
- output file    -> tdftu_4.out
- root for input  files -> tdftu_4i
- root for output files -> tdftu_4o

-instrng :    76 lines of input have been read from file tdftu_4.in

 iofn2 : Please give name of formatted atomic psp file
 iofn2 : for atom type   1 , psp file is 28ni.paw

 iofn2 : Please give name of formatted atomic psp file
 iofn2 : for atom type   2 , psp file is 8o.2.paw
  read the values zionpsp= 18.0 , pspcod=   7 , lmax=   2
 2 0.                                   : shape_type,rshape
  read the values zionpsp=  6.0 , pspcod=   7 , lmax=   2
 2 0.                                   : shape_type(SIN),rshape

 inpspheads : deduce mpsang  =   3, n1xccc  =   1.

 invars1m : enter jdtset=     0
 invars1 : treat image number     1

 symlatt : the Bravais lattice is hR (rhombohedral)
  xred   is defined in input file
 ingeo : takes atomic coordinates from input array xred

 symlatt : the Bravais lattice is hR (rhombohedral)
 Shubnikov space group type IV
 symspgr : the symmetry operation no.   1 is the identity
 symspgr : the symmetry operation no.   2 is an inversion
 symplanes : the symmetry operation no.   3 is a mirror plane
 symaxes : the symmetry operation no.   4 is a 2-axis
 symaxes : the symmetry operation no.   5 is a 3-axis
 symspgr : the symmetry operation no.   6 is a -3 axis
 symplanes : the symmetry operation no.   7 is a mirror plane
 symaxes : the symmetry operation no.   8 is a 2-axis
 symaxes : the symmetry operation no.   9 is a 3-axis
 symspgr : the symmetry operation no.  10 is a -3 axis
 symplanes : the symmetry operation no.  11 is a mirror plane
 symaxes : the symmetry operation no.  12 is a 2-axis
 symspgr : spgroup= 166  R-3 m   (=D3d^5)
 getkgrid : length of smallest supercell vector (bohr)=    1.120057E+01
       Simple Lattice Grid
 symkpt : found identity, with number  1
 getkgrid : length of smallest supercell vector (bohr)=    1.120057E+01
       Simple Lattice Grid
 symkpt : found identity, with number  1
  dtset%nelect=   48.000000000000000
 chkneu : initialized the occupation numbers for occopt=    7
    spin-unpolarized case :
  2.00  2.00  2.00  2.00  2.00  2.00  2.00  2.00  2.00  2.00  2.00  2.00
  2.00  2.00  2.00  2.00  2.00  2.00  2.00  2.00  2.00  2.00  2.00  2.00
  0.00  0.00  0.00  0.00  0.00  0.00  0.00  0.00  0.00  0.00  0.00  0.00
  0.00  0.00  0.00  0.00
  mpi_setup : enter
 mpi_setup1: mkmem  undefined in the input file. Use default mkmem  = nkpt
 mpi_setup1: With nkpt_me=    3 and mkmem  =     3, ground state wf handled in core.
 mpi_setup1: mkqmem undefined in the input file. Use default mkqmem = nkpt
 mpi_setup1: With nkpt_me=    3 and mkqmem =     3, ground state wf handled in core.
 mpi_setup1: mk1mem undefined in the input file. Use default mk1mem = nkpt
 mpi_setup1: With nkpt_me=    3 and mk1mem =     3, ground state wf handled in core.

 getng is called for the coarse grid:

 getng.F90:200:WARNING
 For input ecut=  1.500000E+01 best grid ngfft=      20      20      40
       max ecut=  1.573437E+01

 ==== FFT mesh ====
  FFT mesh divisions ........................    20   20   40
  Augmented FFT divisions ...................    21   21   40
  FFT algorithm .............................   112
  FFT cache size ............................    16
 getmpw: optimal value of mpw=     691

 getng is called for the fine grid:
 Using supplied coarse mesh as initial guess.
 For input ecut=  3.000000E+01 best grid ngfft=      30      30      60
       max ecut=  3.546134E+01

 ==== FFT mesh ====
  FFT mesh divisions ........................    30   30   60
  Augmented FFT divisions ...................    31   31   60
  FFT algorithm .............................   112
  FFT cache size ............................    16

 Magnetic group, Shubnikov type IV
 Fedorov space group R-3 m (#166)
 Magnetic Bravais lattice hR_I (rhombohedral, centered magnetic, #31)

 getdim_nloc : deduce lmnmax  =  18, lnmax  =   6,
                      lmnmaxso=  18, lnmaxso=   6.
 setmqgrid : COMMENT -
  The number of points "mqgrid" in reciprocal space used for the
  description of the pseudopotentials has been set automatically
  by abinit to :     3001.
 setmqgrid : COMMENT -
  The number of points "mqgriddg" in reciprocal space used for the
  description of the pseudopotentials has been set automatically
  by abinit to :     3001.
   intxc =         0  ionmov =         0    iscf =        17 xclevel =         1
  lmnmax =        18   lnmax =         6   mband =        40  mffmem =         1
P  mgfft =        40   mkmem =         3 mpssoang=         3     mpw =       691
  mqgrid =      3001   natom =         4    nfft =     16000    nkpt =         3
  nloalg =         4  nspden =         2 nspinor =         1  nsppol =         1
    nsym =        24  n1xccc =         1  ntypat =         2  occopt =         7
 PAW method is used; the additional fine FFT grid is defined by:
   mgfftf=        60    nfftf =     54000
  Rough estimation (10% accuracy) of disk space for files :

 The job will continue.
------------- Echo of variables that govern the present computation ------------
-
- outvars: echo of selected default values
-   accesswff0 =  0 , fftalg0 =112 , wfoptalg0 = 10
-
- outvars: echo of global parameters not present in the input file
-  max_nthreads =    0
-
 -outvars: echo values of preprocessed input variables --------

 These variables are accessible in NetCDF format (tdftu_4o_OUT.nc)

            acell      7.9200000000E+00  7.9200000000E+00  7.9200000000E+00 Bohr
              amu      5.86900000E+01  1.59994000E+01
      chksymbreak           0
         dmatpawu        0.90036    0.00000   -0.00003    0.00000    0.00000
                         0.00000    0.90036   -0.00001    0.00000    0.00002
                        -0.00003   -0.00001    0.91309   -0.00001    0.00000
                         0.00000    0.00000   -0.00001    0.90036   -0.00002
                         0.00000    0.00002    0.00000   -0.00002    0.91309
                         0.89677   -0.00001    0.00011   -0.00001    0.00000
                        -0.00001    0.89677    0.00006    0.00001   -0.00010
                         0.00011    0.00006    0.11580    0.00006    0.00000
                        -0.00001    0.00001    0.00006    0.89677    0.00010
                         0.00000   -0.00010    0.00000    0.00010    0.11580
             ecut      1.50000000E+01 Hartree
              ixc           7
            jpawu      2.93994603E-02  0.00000000E+00
              kpt      2.50000000E-01  2.50000000E-01  2.50000000E-01
                      -2.50000000E-01  2.50000000E-01  2.50000000E-01
                      -2.50000000E-01 -2.50000000E-01  2.50000000E-01
         kptrlatt        2    0    0      0    2    0      0    0    2
          kptrlen      1.12005714E+01
            lpawu           2      -1
P           mkmem           3
            natom           4
            nband          40
            ngfft          20      20      40
          ngfftdg          30      30      60
             nkpt           3
           nspden           2
            nstep          50
             nsym          24
           ntypat           2
              occ      2.000000  2.000000  2.000000  2.000000  2.000000  2.000000
                       2.000000  2.000000  2.000000  2.000000  2.000000  2.000000
                       2.000000  2.000000  2.000000  2.000000  2.000000  2.000000
                       2.000000  2.000000  2.000000  2.000000  2.000000  2.000000
                       0.000000  0.000000  0.000000  0.000000  0.000000  0.000000
                       0.000000  0.000000  0.000000  0.000000  0.000000  0.000000
                       0.000000  0.000000  0.000000  0.000000
                       2.000000  2.000000  2.000000  2.000000  2.000000  2.000000
                       2.000000  2.000000  2.000000  2.000000  2.000000  2.000000
                       2.000000  2.000000  2.000000  2.000000  2.000000  2.000000
                       2.000000  2.000000  2.000000  2.000000  2.000000  2.000000
                       0.000000  0.000000  0.000000  0.000000  0.000000  0.000000
                       0.000000  0.000000  0.000000  0.000000  0.000000  0.000000
                       0.000000  0.000000  0.000000  0.000000
                       2.000000  2.000000  2.000000  2.000000  2.000000  2.000000
                       2.000000  2.000000  2.000000  2.000000  2.000000  2.000000
                       2.000000  2.000000  2.000000  2.000000  2.000000  2.000000
                       2.000000  2.000000  2.000000  2.000000  2.000000  2.000000
[...]
   0.00257   0.00143  -0.00090  -0.12183  -0.00090  -0.00016   0.02286  -0.00016   0.00011   0.00083  -0.00139   0.00083 ...
  -0.00257  -0.00143   0.00090  -0.00090  -0.12183   0.00016  -0.00016   0.02286   0.00083   0.00011  -0.00069  -0.00083 ...
  -0.00321   0.00017  -0.00772   0.00016  -0.00772   0.00083   0.00011   0.00083   0.01060  -0.00012   0.00094  -0.00012 ...
   0.00321  -0.00017   0.00772  -0.00772   0.00016  -0.00083   0.00083   0.00011  -0.00012   0.01060   0.00047   0.00012 ...
   0.00000   0.00000   0.00260   0.00520   0.00260  -0.00069  -0.00139  -0.00069   0.00094   0.00047   0.00838   0.00047 ...
   0.00321  -0.00017   0.00016  -0.00772   0.00772   0.00011   0.00083  -0.00083  -0.00012   0.00012   0.00047   0.01060 ...
   ...  only 12  components have been written...
 Atom #  4 - Spin component 2
   1.06857  -0.06154  -0.00206   0.00206  -0.00206   0.00257  -0.00257   0.00257  -0.00321   0.00321   0.00000   0.00321 ...
  -0.06154   0.01221   0.00686  -0.00686   0.00686   0.00143  -0.00143   0.00143   0.00017  -0.00017   0.00000  -0.00017 ...
  -0.00206   0.00686   1.03101  -0.00046   0.00046  -0.12183  -0.00090   0.00090   0.00772  -0.00772  -0.00260  -0.00016 ...
   0.00206  -0.00686  -0.00046   1.03101  -0.00046  -0.00090  -0.12183  -0.00090  -0.00016   0.00772  -0.00520   0.00772 ...
  -0.00206   0.00686   0.00046  -0.00046   1.03101   0.00090  -0.00090  -0.12183   0.00772  -0.00016  -0.00260  -0.00772 ...
   0.00257   0.00143  -0.12183  -0.00090   0.00090   0.02286  -0.00016   0.00016  -0.00083   0.00083   0.00069  -0.00011 ...
  -0.00257  -0.00143  -0.00090  -0.12183  -0.00090  -0.00016   0.02286  -0.00016  -0.00011  -0.00083   0.00139  -0.00083 ...
   0.00257   0.00143   0.00090  -0.00090  -0.12183   0.00016  -0.00016   0.02286  -0.00083  -0.00011   0.00069   0.00083 ...
  -0.00321   0.00017   0.00772  -0.00016   0.00772  -0.00083  -0.00011  -0.00083   0.01060  -0.00012   0.00094  -0.00012 ...
   0.00321  -0.00017  -0.00772   0.00772  -0.00016   0.00083  -0.00083  -0.00011  -0.00012   0.01060   0.00047   0.00012 ...
   0.00000   0.00000  -0.00260  -0.00520  -0.00260   0.00069   0.00139   0.00069   0.00094   0.00047   0.00838   0.00047 ...
   0.00321  -0.00017  -0.00016   0.00772  -0.00772  -0.00011  -0.00083   0.00083  -0.00012   0.00012   0.00047   0.01060 ...
   ...  only 12  components have been written...

 "PAW+U" part of augmentation waves occupancies Rhoij:
 Atom #  1 - L=2 ONLY - Spin component 1
   0.98268  -0.00010  -0.00040  -0.00010   0.00000
  -0.00010   0.98268  -0.00020   0.00010   0.00034
  -0.00040  -0.00020   1.02121  -0.00020   0.00000
  -0.00010   0.00010  -0.00020   0.98268  -0.00034
   0.00000   0.00034   0.00000  -0.00034   1.02121
 Atom #  1 - L=2 ONLY - Spin component 2
   1.00426  -0.00011   0.00102  -0.00011   0.00000
  -0.00011   1.00426   0.00051   0.00011  -0.00088
   0.00102   0.00051   0.09334   0.00051   0.00000
  -0.00011   0.00011   0.00051   1.00426   0.00088
   0.00000  -0.00088   0.00000   0.00088   0.09334
 Atom #  2 - L=2 ONLY - Spin component 1
   1.00426  -0.00011   0.00102  -0.00011   0.00000
  -0.00011   1.00426   0.00051   0.00011  -0.00088
   0.00102   0.00051   0.09334   0.00051   0.00000
  -0.00011   0.00011   0.00051   1.00426   0.00088
   0.00000  -0.00088   0.00000   0.00088   0.09334
 Atom #  2 - L=2 ONLY - Spin component 2
   0.98268  -0.00010  -0.00040  -0.00010   0.00000
  -0.00010   0.98268  -0.00020   0.00010   0.00034
  -0.00040  -0.00020   1.02121  -0.00020   0.00000
  -0.00010   0.00010  -0.00020   0.98268  -0.00034
   0.00000   0.00034   0.00000  -0.00034   1.02121

 ---------- LDA+U DATA ---------------------------------------------------

 ====== For Atom     1, occupations for correlated orbitals. lpawu =   2

 Atom   1. Occ. for lpawu and for spin  1 =   4.79439
 Atom   1. Occ. for lpawu and for spin  2 =   3.07376
 => On atom   1,  local Mag. for lpawu is       -1.720634

 == Occupation matrix for correlated orbitals:

 Occupation matrix for spin  1
     0.94407   -0.00010   -0.00038   -0.00010    0.00000
    -0.00010    0.94407   -0.00019    0.00010    0.00033
    -0.00038   -0.00019    0.98109   -0.00019    0.00000
    -0.00010    0.00010   -0.00019    0.94407   -0.00033
     0.00000    0.00033    0.00000   -0.00033    0.98109

[...]

 ====== For Atom     2, occupations for correlated orbitals. lpawu =   2

 Atom   2. Occ. for lpawu and for spin  1 =   3.07376
 Atom   2. Occ. for lpawu and for spin  2 =   4.79439
 => On atom   2,  local Mag. for lpawu is        1.720634

 == Occupation matrix for correlated orbitals:

[...]

 Occupation matrix for spin  2
     0.94407   -0.00010   -0.00038   -0.00010    0.00000
    -0.00010    0.94407   -0.00019    0.00010    0.00033
    -0.00038   -0.00019    0.98109   -0.00019    0.00000
    -0.00010    0.00010   -0.00019    0.94407   -0.00033
     0.00000    0.00033    0.00000   -0.00033    0.98109

 ----iterations are completed or convergence reached----

 outwf: write wavefunction to file tdftu_4o_WFK, with accesswff -1
 leave_test : synchronization done...

 === Gap info ===
  >>>> For spin  1
   Minimum optical gap =   4.3716 [eV], located at k-point      :  -0.2500 -0.2500  0.2500
   Fundamental gap     =   4.3427 [eV], Top of valence bands at :  -0.2500 -0.2500  0.2500
                                        Bottom of conduction at :   0.2500  0.2500  0.2500

 Cartesian components of stress tensor (hartree/bohr^3)
  sigma(1 1)=  8.60866953E-04  sigma(3 2)=  4.03213333E-05
  sigma(2 2)=  8.60866953E-04  sigma(3 1)=  4.03213333E-05
  sigma(3 3)=  8.60866953E-04  sigma(2 1)= -4.03213333E-05

-Cartesian components of stress tensor (GPa)         [Pressure= -2.5328E+01 GPa]
- sigma(1 1)=  2.53275759E+01  sigma(3 2)=  1.18629438E+00
- sigma(2 2)=  2.53275759E+01  sigma(3 1)=  1.18629438E+00
- sigma(3 3)=  2.53275759E+01  sigma(2 1)= -1.18629438E+00

== END DATASET(S) ==============================================================

 -outvars: echo values of variables after computation  --------

 These variables are accessible in NetCDF format (tdftu_4o_OUT.nc)

            acell      7.9200000000E+00  7.9200000000E+00  7.9200000000E+00 Bohr
              amu      5.86900000E+01  1.59994000E+01
      chksymbreak           0
         dmatpawu        0.90036    0.00000   -0.00003    0.00000    0.00000
                         0.00000    0.90036   -0.00001    0.00000    0.00002
                        -0.00003   -0.00001    0.91309   -0.00001    0.00000
                         0.00000    0.00000   -0.00001    0.90036   -0.00002
                         0.00000    0.00002    0.00000   -0.00002    0.91309
                         0.89677   -0.00001    0.00011   -0.00001    0.00000
                        -0.00001    0.89677    0.00006    0.00001   -0.00010
                         0.00011    0.00006    0.11580    0.00006    0.00000
                        -0.00001    0.00001    0.00006    0.89677    0.00010
                         0.00000   -0.00010    0.00000    0.00010    0.11580
             ecut      1.50000000E+01 Hartree
           etotal     -3.7326164775E+02
            fcart     -0.0000000000E+00 -0.0000000000E+00 -0.0000000000E+00
                      -0.0000000000E+00 -0.0000000000E+00 -0.0000000000E+00
                      -0.0000000000E+00 -0.0000000000E+00 -0.0000000000E+00
                      -0.0000000000E+00 -0.0000000000E+00 -0.0000000000E+00
              ixc           7
            jpawu      2.93994603E-02  0.00000000E+00
              kpt      2.50000000E-01  2.50000000E-01  2.50000000E-01
                      -2.50000000E-01  2.50000000E-01  2.50000000E-01
                      -2.50000000E-01 -2.50000000E-01  2.50000000E-01
         kptrlatt        2    0    0      0    2    0      0    0    2
          kptrlen      1.12005714E+01
            lpawu           2      -1
P           mkmem           3
            natom           4
            nband          40
            ngfft          20      20      40
          ngfftdg          30      30      60
             nkpt           3
           nspden           2
            nstep          50
             nsym          24
           ntypat           2
              occ      2.000000  2.000000  2.000000  2.000000  2.000000  2.000000
                       2.000000  2.000000  2.000000  2.000000  2.000000  2.000000
                       2.000000  2.000000  2.000000  2.000000  2.000000  2.000000
                       2.000000  2.000000  2.000000  2.000000  2.000000  2.000000
                       0.000000  0.000000  0.000000  0.000000  0.000000  0.000000
                       0.000000  0.000000  0.000000  0.000000  0.000000  0.000000
                       0.000000  0.000000  0.000000  0.000000
                       2.000000  2.000000  2.000000  2.000000  2.000000  2.000000
                       2.000000  2.000000  2.000000  2.000000  2.000000  2.000000
                       2.000000  2.000000  2.000000  2.000000  2.000000  2.000000
                       2.000000  2.000000  2.000000  2.000000  2.000000  2.000000
                       0.000000  0.000000  0.000000  0.000000  0.000000  0.000000
                       0.000000  0.000000  0.000000  0.000000  0.000000  0.000000
                       0.000000  0.000000  0.000000  0.000000
                       2.000000  2.000000  2.000000  2.000000  2.000000  2.000000
                       2.000000  2.000000  2.000000  2.000000  2.000000  2.000000
                       2.000000  2.000000  2.000000  2.000000  2.000000  2.000000
                       2.000000  2.000000  2.000000  2.000000  2.000000  2.000000
                       0.000000  0.000000  0.000000  0.000000  0.000000  0.000000
                       0.000000  0.000000  0.000000  0.000000  0.000000  0.000000
                       0.000000  0.000000  0.000000  0.000000
           occopt           7
        pawecutdg      3.00000000E+01 Hartree
        prtdensph           1
            rprim      0.0000000000E+00  5.0000000000E-01  5.0000000000E-01
                       5.0000000000E-01  0.0000000000E+00  5.0000000000E-01
                       1.0000000000E+00  1.0000000000E+00  0.0000000000E+00
           shiftk      5.00000000E-01  5.00000000E-01  5.00000000E-01
          spgroup         166
           spinat      0.0000000000E+00  0.0000000000E+00  1.0000000000E+00
                       0.0000000000E+00  0.0000000000E+00 -1.0000000000E+00
                       0.0000000000E+00  0.0000000000E+00  0.0000000000E+00
                       0.0000000000E+00  0.0000000000E+00  0.0000000000E+00
           strten      8.6086695321E-04  8.6086695321E-04  8.6086695321E-04
                       4.0321333322E-05  4.0321333322E-05 -4.0321333322E-05
           symafm        1   -1    1   -1    1   -1    1   -1    1   -1
                         1   -1    1   -1    1   -1    1   -1    1   -1
                         1   -1    1   -1
           symrel      1  0  0   0  1  0   0  0  1       1  0  0   0  1  0   0  0  1
                      -1  0  0   0 -1  0   0  0 -1      -1  0  0   0 -1  0   0  0 -1
                       0  1  0   1  0  0   0  0  1       0  1  0   1  0  0   0  0  1
                       0 -1  0  -1  0  0   0  0 -1       0 -1  0  -1  0  0   0  0 -1
                       0 -1  0   1 -1  0   0 -2  1       0 -1  0   1 -1  0   0 -2  1
                       0  1  0  -1  1  0   0  2 -1       0  1  0  -1  1  0   0  2 -1
                       1 -1  0   0 -1  0   0 -2  1       1 -1  0   0 -1  0   0 -2  1
                      -1  1  0   0  1  0   0  2 -1      -1  1  0   0  1  0   0  2 -1
                      -1  1  0  -1  0  0  -2  0  1      -1  1  0  -1  0  0  -2  0  1
                       1 -1  0   1  0  0   2  0 -1       1 -1  0   1  0  0   2  0 -1
                      -1  0  0  -1  1  0  -2  0  1      -1  0  0  -1  1  0  -2  0  1
                       1  0  0   1 -1  0   2  0 -1       1  0  0   1 -1  0   2  0 -1
            tnons      0.0000000  0.0000000  0.0000000     0.0000000  0.0000000  0.5000000
                       0.0000000  0.0000000  0.0000000     0.0000000  0.0000000  0.5000000
                       0.0000000  0.0000000  0.0000000     0.0000000  0.0000000  0.5000000
                       0.0000000  0.0000000  0.0000000     0.0000000  0.0000000  0.5000000
                       0.0000000  0.0000000  0.0000000     0.0000000  0.0000000  0.5000000
                       0.0000000  0.0000000  0.0000000     0.0000000  0.0000000  0.5000000
                       0.0000000  0.0000000  0.0000000     0.0000000  0.0000000  0.5000000
                       0.0000000  0.0000000  0.0000000     0.0000000  0.0000000  0.5000000
                       0.0000000  0.0000000  0.0000000     0.0000000  0.0000000  0.5000000
                       0.0000000  0.0000000  0.0000000     0.0000000  0.0000000  0.5000000
                       0.0000000  0.0000000  0.0000000     0.0000000  0.0000000  0.5000000
                       0.0000000  0.0000000  0.0000000     0.0000000  0.0000000  0.5000000
           toldfe      1.00000000E-06 Hartree
           tsmear      1.50000000E-02 Hartree
            typat      1  1  2  2
            upawu      2.93994603E-01  0.00000000E+00
        usedmatpu           5
          usepawu           2
           useylm           1
              wtk        0.25000    0.50000    0.25000
           xangst      0.0000000000E+00  0.0000000000E+00  0.0000000000E+00
                       2.0955417460E+00  2.0955417460E+00  0.0000000000E+00
                       2.0955417460E+00  2.0955417460E+00  2.0955417460E+00
                       4.1910834920E+00  4.1910834920E+00  2.0955417460E+00
            xcart      0.0000000000E+00  0.0000000000E+00  0.0000000000E+00
                       3.9600000000E+00  3.9600000000E+00  0.0000000000E+00
                       3.9600000000E+00  3.9600000000E+00  3.9600000000E+00
                       7.9200000000E+00  7.9200000000E+00  3.9600000000E+00
             xred      0.0000000000E+00  0.0000000000E+00  0.0000000000E+00
                       0.0000000000E+00  0.0000000000E+00  5.0000000000E-01
                       5.0000000000E-01  5.0000000000E-01  2.5000000000E-01
                       5.0000000000E-01  5.0000000000E-01  7.5000000000E-01
            znucl       28.00000    8.00000

 Suggested references for the acknowledgment of ABINIT usage.

 [1] Gamma and beta cerium: LDA+U calculations of ground-state parameters.
 B. Amadon, F. Jollet and M. Torrent, Phys. Rev. B 77, 155104 (2008).
 Comment : LDA+U calculations, usepawu/=0. Strong suggestion to cite this paper.

 [2] Implementation of the Projector Augmented-Wave Method in the ABINIT code.
 M. Torrent, F. Jollet, F. Bottin, G. Zerah, and X. Gonze Comput. Mat. Science 42, 337, (2008).
 Comment : PAW calculations. Strong suggestion to cite this paper.

 [3] ABINIT : First-principles approach of materials and nanosystem properties.
 X. Gonze, B. Amadon, P.-M. Anglade, J.-M. Beuken, F. Bottin, P. Boulanger, F. Bruneval,
 D. Caliste, R. Caracas, M. Cote, T. Deutsch, L. Genovese, Ph. Ghosez, M. Giantomassi
 S. Goedecker, D.R. Hamann, P. Hermet, F. Jollet, G. Jomard, S. Leroux, M. Mancini, S. Mazevet,
 M.J.T. Oliveira, G. Onida, Y. Pouillon, T. Rangel, G.-M. Rignanese, D. Sangalli, R. Shaltaf,
 M. Torrent, M.J. Verstraete, G. Zerah, J.W. Zwanziger
 Computer Phys. Comm. 180, 2582-2615 (2009).
 Comment : the third generic paper describing the ABINIT project.
 Note that a version of this paper, that is not formatted for Computer Phys. Comm.
 The licence allows the authors to put it on the Web.

 [4] A brief introduction to the ABINIT software package.
 X. Gonze, G.-M. Rignanese, M. Verstraete, J.-M. Beuken, Y. Pouillon, R. Caracas, F. Jollet,
 M. Torrent, G. Zerah, M. Mikami, Ph. Ghosez, M. Veithen, J.-Y. Raty, V. Olevano, F. Bruneval,
 L. Reining, R. Godby, G. Onida, D.R. Hamann, and D.C. Allan.
 Z. Kristallogr. 220, 558-562 (2005).
 Comment : the second generic paper describing the ABINIT project. Note that this paper
 should be cited especially if you are using the GW part of ABINIT, as several authors
 of this part are not in the list of authors of the first or third paper.
 Note that it should not redistributed (Copyright by Oldenburg Wissenshaftverlag,
 the licence allows the authors to put it on the Web).

 And optionally :

 [5] First-principles computation of material properties : the ABINIT software project.
 X. Gonze, J.-M. Beuken, R. Caracas, F. Detraux, M. Fuchs, G.-M. Rignanese, L. Sindic,
 M. Verstraete, G. Zerah, F. Jollet, M. Torrent, A. Roy, M. Mikami, Ph. Ghosez, J.-Y. Raty, D.C. Allan.
 Comment : the original paper describing the ABINIT project.

 Calculation completed.
.Delivered    7 WARNINGs and   4 COMMENTs to log file.