.Version 7.4.3 of ABINIT

 ABINIT is a project of the Universite Catholique de Louvain,
 Corning Inc. and other collaborators, see ~abinit/doc/developers/contributors.txt .
 Please read ~abinit/doc/users/acknowledgments.html for suggested
 acknowledgments of the ABINIT effort.

.Starting date : Mon  4 Jun 2018.
- ( at 13h08 )

 herald :  WARNING -
  The starting date is more than 3 years after the initial release
  of this version of ABINIT, namely Aug 2013.
  This version of ABINIT is not supported anymore.
  Action : please, switch to a more recent version of ABINIT.

 herald :  WARNING -
  The starting date is more than 3 years after the initial release
  of this version of ABINIT, namely Aug 2013.
  This version of ABINIT is not supported anymore.
  Action : please, switch to a more recent version of ABINIT.

 === Build Information ===
  Version       : 7.4.3
  Build target  : i686_cygwin_gnu4.7
  Build date    : 20131019

 === Optimizations ===
  Debug level        : no
  Optimization level : standard
  Architecture       : _

  Parallel build : yes
  Parallel I/O   : no
  Time tracing   : no
  GPU support    : no

 === Connectors / Fallbacks ===
  Connectors on : yes
  Fallbacks on  : yes
  FFT flavor    : none
  LINALG flavor : netlib
  MATH flavor   : none
  TIMER flavor  : abinit
  TRIO flavor   : netcdf+etsf_io

 === Experimental features ===
  Bindings            : no
  Exports             : no
  GW double-precision : yes

 === Bazaar branch information ===
  Branch ID : xavier.gonze@uclouvain.be-20131019063522-8wupmx7xtg5stywd
  Revision  : 490
  Committed : 0

 Default optimizations:
   --- None ---

 CPP options activated during the build:

                    CC_GNU                   CXX_GNU                    FC_GNU

           HAVE_BZR_BRANCH          HAVE_DFT_ATOMPAW           HAVE_DFT_BIGDFT

      HAVE_FC_COMMAND_LINE        HAVE_FC_CONTIGUOUS           HAVE_FC_CPUTIME

              HAVE_FC_EXIT             HAVE_FC_FLUSH             HAVE_FC_GAMMA

            HAVE_FC_GETENV          HAVE_FC_INT_QUAD             HAVE_FC_IOMSG

     HAVE_FC_ISO_C_BINDING        HAVE_FC_LONG_LINES              HAVE_FC_NULL

         HAVE_FC_STREAM_IO          HAVE_FORTRAN2003               HAVE_LINALG

        HAVE_LINALG_SERIAL                  HAVE_MPI                 HAVE_MPI1

 HAVE_MPI_TYPE_CREATE_S...           HAVE_OS_WINDOWS                HAVE_TIMER

         HAVE_TIMER_ABINIT            HAVE_TIMER_MPI         HAVE_TIMER_SERIAL

         HAVE_TRIO_ETSF_IO          HAVE_TRIO_NETCDF

- input  file    -> tbasepar_2.in
- output file    -> tbasepar_2.out
- root for input  files -> tbasepar_2i
- root for output files -> tbasepar_2o

-instrng :    51 lines of input have been read from file tbasepar_2.in

 iofn2 : Please give name of formatted atomic psp file
 iofn2 : for atom type   1 , psp file is 26fe.8.hgh
  read the values zionpsp=  8.0 , pspcod=   3 , lmax=   2

 inpspheads : deduce mpsang  =   3, n1xccc  =   0.

 invars1m : enter jdtset=     0
 invars1 : treat image number     1

 symlatt : the Bravais lattice is cP (primitive cubic)
  xred   is defined in input file
 ingeo : takes atomic coordinates from input array xred

 symlatt : the Bravais lattice is cP (primitive cubic)

 symlatt : the Bravais lattice is cP (primitive cubic)
 symspgr : the symmetry operation no.   1 is the identity
 symaxes : the symmetry operation no.   2 is a 2-axis
 symaxes : the symmetry operation no.   3 is a 2-axis
 symaxes : the symmetry operation no.   4 is a 2-axis
 symplanes : the symmetry operation no.   5 is a mirror plane
 symspgr : the symmetry operation no.   6 is a -4 axis
 symplanes : the symmetry operation no.   7 is a mirror plane
 symspgr : the symmetry operation no.   8 is a -4 axis
 symaxes : the symmetry operation no.   9 is a 3-axis
 symaxes : the symmetry operation no.  10 is a 3-axis
 symaxes : the symmetry operation no.  11 is a 3-axis
 symaxes : the symmetry operation no.  12 is a 3-axis
 symplanes : the symmetry operation no.  13 is a mirror plane
 symspgr : the symmetry operation no.  14 is a -4 axis
 symspgr : the symmetry operation no.  15 is a -4 axis
 symplanes : the symmetry operation no.  16 is a mirror plane
 symaxes : the symmetry operation no.  17 is a 3-axis
 symaxes : the symmetry operation no.  18 is a 3-axis
 symaxes : the symmetry operation no.  19 is a 3-axis
 symaxes : the symmetry operation no.  20 is a 3-axis
 symplanes : the symmetry operation no.  21 is a mirror plane
 symplanes : the symmetry operation no.  22 is a mirror plane
 symspgr : the symmetry operation no.  23 is a -4 axis
 symspgr : the symmetry operation no.  24 is a -4 axis
 symspgr : spgroup= 215  P-4 3 m   (=Td^1)
 getkgrid : length of smallest supercell vector (bohr)=    1.400000E+01
       Simple Lattice Grid
 symkpt : found identity, with number  1
 getkgrid : length of smallest supercell vector (bohr)=    1.400000E+01
       Simple Lattice Grid
 symkpt : found identity, with number  1
  dtset%nelect=   32.000000000000000
 chkneu : initialized the occupation numbers for occopt=    7
    spin up   values :
  1.00  1.00  1.00  1.00  1.00  1.00  1.00  1.00  1.00  1.00  1.00  1.00
  1.00  1.00  1.00  1.00  0.00  0.00  0.00  0.00  0.00  0.00  0.00  0.00
  0.00  0.00  0.00  0.00  0.00  0.00  0.00  0.00  0.00  0.00  0.00  0.00
  0.00  0.00  0.00  0.00
    spin down values :
  1.00  1.00  1.00  1.00  1.00  1.00  1.00  1.00  1.00  1.00  1.00  1.00
  1.00  1.00  1.00  1.00  0.00  0.00  0.00  0.00  0.00  0.00  0.00  0.00
  0.00  0.00  0.00  0.00  0.00  0.00  0.00  0.00  0.00  0.00  0.00  0.00
  0.00  0.00  0.00  0.00
  mpi_setup : enter
 mpi_setup1: mkmem  undefined in the input file. Use default mkmem  = nkpt
 mpi_setup1: With nkpt_me=    1 and mkmem  =     1, ground state wf handled in core.
 mpi_setup1: mkqmem undefined in the input file. Use default mkqmem = nkpt
 mpi_setup1: With nkpt_me=    1 and mkqmem =     1, ground state wf handled in core.
 mpi_setup1: mk1mem undefined in the input file. Use default mk1mem = nkpt
 mpi_setup1: With nkpt_me=    1 and mk1mem =     1, ground state wf handled in core.

 getng.F90:200:WARNING
 For input ecut=  3.000000E+01 best grid ngfft=      36      36      36
       max ecut=  3.263012E+01

 ==== FFT mesh ====
  FFT mesh divisions ........................    36   36   36
  Augmented FFT divisions ...................    37   37   36
  FFT algorithm .............................   112
  FFT cache size ............................    16
 getmpw: optimal value of mpw=    2698

 Symmetries : space group P-4 3 m (#215); Bravais cP (primitive cubic)

 getdim_nloc : deduce lmnmax  =  14, lnmax  =   6,
                      lmnmaxso=  25, lnmaxso=   9.
 setmqgrid : COMMENT -
  The number of points "mqgrid" in reciprocal space used for the
  description of the pseudopotentials has been set automatically
  by abinit to :     3001.
   intxc =         0  ionmov =         0    iscf =         7 xclevel =         1
  lmnmax =         6   lnmax =         6   mband =        40  mffmem =         1
P  mgfft =        36   mkmem =         1 mpssoang=         3     mpw =      2698
  mqgrid =      3001   natom =         4    nfft =     46656    nkpt =         1
  nloalg =         4  nspden =         2 nspinor =         1  nsppol =         2
    nsym =        24  n1xccc =         0  ntypat =         1  occopt =         7
  Rough estimation (10% accuracy) of disk space for files :

 The job will continue.
------------- Echo of variables that govern the present computation ------------
-
- outvars: echo of selected default values
-   accesswff0 =  0 , fftalg0 =112 , wfoptalg0 =  0
-
- outvars: echo of global parameters not present in the input file
-  max_nthreads =    0
-
 -outvars: echo values of preprocessed input variables --------

 These variables are accessible in NetCDF format (tbasepar_2o_OUT.nc)

            acell      7.0000000000E+00  7.0000000000E+00  7.0000000000E+00 Bohr
              amu      5.58470000E+01
             ecut      3.00000000E+01 Hartree
              kpt      2.50000000E-01  2.50000000E-01  2.50000000E-01
         kptrlatt        2    0    0      0    2    0      0    0    2
          kptrlen      1.40000000E+01
P           mkmem           1
            natom           4
            nband          40
            ngfft          36      36      36
             nkpt           1
            nline           5
           nspden           2
           nsppol           2
            nstep           5
             nsym          24
           ntypat           1
              occ      1.000000  1.000000  1.000000  1.000000  1.000000  1.000000
                       1.000000  1.000000  1.000000  1.000000  1.000000  1.000000
                       1.000000  1.000000  1.000000  1.000000  0.000000  0.000000
                       0.000000  0.000000  0.000000  0.000000  0.000000  0.000000
                       0.000000  0.000000  0.000000  0.000000  0.000000  0.000000
                       0.000000  0.000000  0.000000  0.000000  0.000000  0.000000
                       0.000000  0.000000  0.000000  0.000000
                       1.000000  1.000000  1.000000  1.000000  1.000000  1.000000
                       1.000000  1.000000  1.000000  1.000000  1.000000  1.000000
                       1.000000  1.000000  1.000000  1.000000  0.000000  0.000000
                       0.000000  0.000000  0.000000  0.000000  0.000000  0.000000
                       0.000000  0.000000  0.000000  0.000000  0.000000  0.000000
                       0.000000  0.000000  0.000000  0.000000  0.000000  0.000000
                       0.000000  0.000000  0.000000  0.000000
           occopt           7
           shiftk      5.00000000E-01  5.00000000E-01  5.00000000E-01
          spgroup         215
           spinat      0.0000000000E+00  0.0000000000E+00  3.0000000000E+00
                       0.0000000000E+00  0.0000000000E+00  3.0000000000E+00
                       0.0000000000E+00  0.0000000000E+00  3.0000000000E+00
                       0.0000000000E+00  0.0000000000E+00  3.0000000000E+00
           symrel      1  0  0   0  1  0   0  0  1      -1  0  0   0  1  0   0  0 -1
                      -1  0  0   0 -1  0   0  0  1       1  0  0   0 -1  0   0  0 -1
                       0  1  0   1  0  0   0  0  1       0 -1  0   1  0  0   0  0 -1
                       0 -1  0  -1  0  0   0  0  1       0  1  0  -1  0  0   0  0 -1
                       0  0  1   1  0  0   0  1  0       0  0 -1   1  0  0   0 -1  0
                       0  0 -1  -1  0  0   0  1  0       0  0  1  -1  0  0   0 -1  0
                       1  0  0   0  0  1   0  1  0      -1  0  0   0  0  1   0 -1  0
                      -1  0  0   0  0 -1   0  1  0       1  0  0   0  0 -1   0 -1  0
                       0  1  0   0  0  1   1  0  0       0 -1  0   0  0  1  -1  0  0
                       0 -1  0   0  0 -1   1  0  0       0  1  0   0  0 -1  -1  0  0
                       0  0  1   0  1  0   1  0  0       0  0 -1   0  1  0  -1  0  0
                       0  0 -1   0 -1  0   1  0  0       0  0  1   0 -1  0  -1  0  0
[...]
 Total charge density [el/Bohr^3]
,     Maximum=    1.6275E+00  at reduced coord.    0.4444    0.4444    0.9444
,     Minimum=    7.1193E-04  at reduced coord.    0.5278    0.5278    0.5278
,  Integrated=    3.2000E+01
 Spin up density      [el/Bohr^3]
,     Maximum=    1.0198E+00  at reduced coord.    0.5000    0.5000    0.9167
,     Minimum=    3.8247E-04  at reduced coord.    0.5278    0.5278    0.5278
,  Integrated=    2.0000E+01
 Spin down density    [el/Bohr^3]
,     Maximum=    6.0900E-01  at reduced coord.    0.4444    0.4444    0.9444
,     Minimum=    3.2946E-04  at reduced coord.    0.5278    0.5278    0.5278
,  Integrated=    1.2000E+01
 Magnetization (spin up - spin down) [el/Bohr^3]
,     Maximum=    4.3286E-01  at reduced coord.    0.5000    0.5000    0.9167
,     Minimum=    4.9288E-05  at reduced coord.    0.5000    0.0000    0.0000
,  Integrated=    7.9998E+00
 Relative magnetization (=zeta, between -1 and 1)
,     Maximum=    2.6938E-01  at reduced coord.    0.5000    0.5000    0.9167
,     Minimum=    6.1353E-02  at reduced coord.    0.2500    0.2500    0.2500
 Total charge density [el/Bohr^3]
,     Maximum=    1.6275E+00  at reduced coord.    0.4444    0.4444    0.9444
,     Minimum=    7.1193E-04  at reduced coord.    0.5278    0.5278    0.5278
,  Integrated=    3.2000E+01
 Spin up density      [el/Bohr^3]
,     Maximum=    1.0198E+00  at reduced coord.    0.5000    0.5000    0.9167
,     Minimum=    3.8247E-04  at reduced coord.    0.5278    0.5278    0.5278
,  Integrated=    2.0000E+01
 Spin down density    [el/Bohr^3]
,     Maximum=    6.0900E-01  at reduced coord.    0.4444    0.4444    0.9444
,     Minimum=    3.2946E-04  at reduced coord.    0.5278    0.5278    0.5278
,  Integrated=    1.2000E+01
 Magnetization (spin up - spin down) [el/Bohr^3]
,     Maximum=    4.3286E-01  at reduced coord.    0.5000    0.5000    0.9167
,     Minimum=    4.9288E-05  at reduced coord.    0.5000    0.0000    0.0000
,  Integrated=    7.9998E+00
 Relative magnetization (=zeta, between -1 and 1)
,     Maximum=    2.6938E-01  at reduced coord.    0.5000    0.5000    0.9167
,     Minimum=    6.1353E-02  at reduced coord.    0.2500    0.2500    0.2500
 ETOT  1  -71.209220089713    -7.12E+01 2.09E-02 2.93E+04 8.000
 scprqt: <Vxc>= -3.3813589E-01 hartree

Simple mixing update:
  residual square of the potential :   17161.637218381908

[...]

 Pulay update with  1 previous iterations:
 mixing of old trial potential : alpha(m:m-4)=  0.510      0.490

[...]

 Pulay update with  3 previous iterations:
 mixing of old trial potential : alpha(m:m-4)=   1.86      -1.14      0.129      0.151

 ITER STEP NUMBER     5
 vtorho : nnsclo_now=  1, note that nnsclo,dbl_nnsclo,istep=  0 0  5
  ****  In vtorho for isppol=           1
  ****  In vtorho for isppol=           2
 newocc : new Fermi energy is       0.249453 , with nelect=     32.000000
  Number of bissection calls =  50
 newocc : computed new occupation numbers for occopt=    7
  (1) spin up   values
 1.000 1.000 1.000 1.000 1.000 1.000 1.000 1.000 1.000 1.000 1.000 1.000
 1.000 1.000 1.000 1.000 1.000 1.000 0.993 0.993 0.988 0.087 0.078 0.078
 0.000 0.000 0.000 0.000 0.000 0.000 0.000 0.000 0.000 0.000 0.000 0.000
 0.000 0.000 0.000 0.000
  (2) spin down values
 1.000 1.000 1.000 1.000 0.994 0.993 0.993 0.789 0.743 0.743 0.694 0.277
 0.277 0.088 0.088 0.081 0.012 0.012 0.001 0.001 0.000 0.000 0.000 0.000
 0.000 0.000 0.000 0.000 0.000 0.000 0.000 0.000 0.000 0.000 0.000 0.000
 0.000 0.000 0.000 0.000
mkrho: echo density (plane-wave part only)
 Total charge density [el/Bohr^3]
,     Maximum=    9.7821E-01  at reduced coord.    0.4167    0.4444    0.9722
,     Minimum=    7.6935E-03  at reduced coord.    0.0000    0.0000    0.0000
,  Integrated=    3.2000E+01
 Spin up density      [el/Bohr^3]
,     Maximum=    7.5952E-01  at reduced coord.    0.5000    0.5000    0.9167
,     Minimum=    5.7361E-03  at reduced coord.    0.0000    0.0000    0.0000
,  Integrated=    2.1217E+01
 Spin down density    [el/Bohr^3]
,     Maximum=    2.4613E-01  at reduced coord.    0.0556    0.9444    0.9444
,     Minimum=    1.9574E-03  at reduced coord.    0.0000    0.0000    0.0000
,  Integrated=    1.0783E+01
 Magnetization (spin up - spin down) [el/Bohr^3]
,     Maximum=    5.8798E-01  at reduced coord.    0.5000    0.5000    0.9167
,     Minimum=   -6.7358E-03  at reduced coord.    0.2500    0.2500    0.2500
,  Integrated=    1.0435E+01
 Relative magnetization (=zeta, between -1 and 1)
,     Maximum=    6.3839E-01  at reduced coord.    0.1111    0.5000    0.5000
,     Minimum=   -1.9358E-01  at reduced coord.    0.5000    0.0000    0.0000
 Total charge density [el/Bohr^3]
,     Maximum=    9.7821E-01  at reduced coord.    0.4167    0.4444    0.9722
,     Minimum=    7.6935E-03  at reduced coord.    0.0000    0.0000    0.0000
,  Integrated=    3.2000E+01
 Spin up density      [el/Bohr^3]
,     Maximum=    7.5952E-01  at reduced coord.    0.5000    0.5000    0.9167
,     Minimum=    5.7361E-03  at reduced coord.    0.0000    0.0000    0.0000
,  Integrated=    2.1217E+01
 Spin down density    [el/Bohr^3]
,     Maximum=    2.4613E-01  at reduced coord.    0.0556    0.9444    0.9444
,     Minimum=    1.9574E-03  at reduced coord.    0.0000    0.0000    0.0000
,  Integrated=    1.0783E+01
 Magnetization (spin up - spin down) [el/Bohr^3]
,     Maximum=    5.8798E-01  at reduced coord.    0.5000    0.5000    0.9167
,     Minimum=   -6.7358E-03  at reduced coord.    0.2500    0.2500    0.2500
,  Integrated=    1.0435E+01
 Relative magnetization (=zeta, between -1 and 1)
,     Maximum=    6.3839E-01  at reduced coord.    0.1111    0.5000    0.5000
,     Minimum=   -1.9358E-01  at reduced coord.    0.5000    0.0000    0.0000
 ETOT  5  -80.082004277437    -4.07E-02 2.60E-04 1.18E+02 10.43
 scprqt: <Vxc>= -4.4892408E-01 hartree

 Pulay update with  4 previous iterations:
 mixing of old trial potential : alpha(m:m-4)=   2.29      -1.66      0.352      0.596E-01 -0.423E-01
forstrnps: loop on k-points and spins done in parallel
  strhar : before mpi_comm, harstr=   8.6848155723723813E-002   8.6848155723723897E-002   8.6848155723723425E-002   1.7347234759768071E-018   0.0000000000000000        0.0000000000000000
  strhar : after mpi_comm, harstr=   8.6848155723723813E-002   8.6848155723723897E-002   8.6848155723723425E-002   1.7347234759768071E-018   0.0000000000000000        0.0000000000000000
  strhar : ehart,ucvol=   14.223160367019529        343.00000000000000

 Cartesian components of stress tensor (hartree/bohr^3)
  sigma(1 1)=  2.44326924E-02  sigma(3 2)=  0.00000000E+00
  sigma(2 2)=  2.44326924E-02  sigma(3 1)=  0.00000000E+00
  sigma(3 3)=  2.44326924E-02  sigma(2 1)=  0.00000000E+00

 scprqt:  WARNING -
  nstep=    5 was not enough SCF cycles to converge;
  potential residual=  1.181E+02 exceeds tolvrs=  1.000E-13

   1  3  2  4  1  3  2  4  1  3  2  4  1  3  2  4  1  3  2  4  1  3  2  4
   2  4  1  3  2  4  1  3  4  2  3  1  3  1  4  2  3  1  4  2  4  2  3  1
   3  1  4  2  4  2  3  1  2  4  1  3  2  4  1  3  4  2  3  1  3  1  4  2
   4  2  3  1  3  1  4  2  3  1  4  2  4  2  3  1  2  4  1  3  2  4  1  3
 ioarr: writing density data
ioarr: file name is tbasepar_2o_DEN
ioarr: data written to disk file tbasepar_2o_DEN

 ----iterations are completed or convergence reached----

 outwf: write wavefunction to file tbasepar_2o_WFK, with accesswff -1
 leave_test : synchronization done...

 === Gap info ===
  >>>> For spin  1
   Minimum optical gap =   2.7926 [eV], located at k-point      :   0.2500  0.2500  0.2500
   Fundamental gap     =   2.7926 [eV], Top of valence bands at :   0.2500  0.2500  0.2500
                                        Bottom of conduction at :   0.2500  0.2500  0.2500
  >>>> For spin  2
   Minimum optical gap =   0.8454 [eV], located at k-point      :   0.2500  0.2500  0.2500
   Fundamental gap     =   0.8454 [eV], Top of valence bands at :   0.2500  0.2500  0.2500
                                        Bottom of conduction at :   0.2500  0.2500  0.2500

 Cartesian components of stress tensor (hartree/bohr^3)
  sigma(1 1)=  2.44326924E-02  sigma(3 2)=  0.00000000E+00
  sigma(2 2)=  2.44326924E-02  sigma(3 1)=  0.00000000E+00
  sigma(3 3)=  2.44326924E-02  sigma(2 1)=  0.00000000E+00

-Cartesian components of stress tensor (GPa)         [Pressure= -7.1883E+02 GPa]
- sigma(1 1)=  7.18834506E+02  sigma(3 2)=  0.00000000E+00
- sigma(2 2)=  7.18834506E+02  sigma(3 1)=  0.00000000E+00
- sigma(3 3)=  7.18834506E+02  sigma(2 1)=  0.00000000E+00

== END DATASET(S) ==============================================================

 -outvars: echo values of variables after computation  --------

 These variables are accessible in NetCDF format (tbasepar_2o_OUT.nc)

            acell      7.0000000000E+00  7.0000000000E+00  7.0000000000E+00 Bohr
              amu      5.58470000E+01
             ecut      3.00000000E+01 Hartree
           etotal     -8.0082004277E+01
            fcart     -5.8835465976E-03 -5.8835465976E-03 -5.8835465976E-03
                       5.8835465976E-03  5.8835465976E-03 -5.8835465976E-03
                       5.8835465976E-03 -5.8835465976E-03  5.8835465976E-03
                      -5.8835465976E-03  5.8835465976E-03  5.8835465976E-03
              kpt      2.50000000E-01  2.50000000E-01  2.50000000E-01
         kptrlatt        2    0    0      0    2    0      0    0    2
          kptrlen      1.40000000E+01
P           mkmem           1
            natom           4
            nband          40
            ngfft          36      36      36
             nkpt           1
            nline           5
           nspden           2
           nsppol           2
            nstep           5
             nsym          24
           ntypat           1
              occ      1.000000  1.000000  1.000000  1.000000  1.000000  1.000000
                       1.000000  0.999999  0.999999  0.999999  0.999998  0.999991
                       0.999991  0.999958  0.999949  0.999949  0.999617  0.999617
                       0.993465  0.993465  0.988310  0.086726  0.078117  0.078117
                       0.000000  0.000000  0.000000  0.000000  0.000000  0.000000
                       0.000000  0.000000  0.000000  0.000000  0.000000  0.000000
                       0.000000  0.000000  0.000000  0.000000
                       1.000000  0.999957  0.999948  0.999948  0.993600  0.992554
                       0.992554  0.788563  0.742862  0.742862  0.693514  0.276725
                       0.276725  0.087915  0.087915  0.080919  0.012408  0.012408
                       0.000525  0.000525  0.000308  0.000000  0.000000  0.000000
                       0.000000  0.000000  0.000000  0.000000  0.000000  0.000000
                       0.000000  0.000000  0.000000  0.000000  0.000000  0.000000
                       0.000000  0.000000  0.000000  0.000000
           occopt           7
           shiftk      5.00000000E-01  5.00000000E-01  5.00000000E-01
          spgroup         215
           spinat      0.0000000000E+00  0.0000000000E+00  3.0000000000E+00
                       0.0000000000E+00  0.0000000000E+00  3.0000000000E+00
                       0.0000000000E+00  0.0000000000E+00  3.0000000000E+00
                       0.0000000000E+00  0.0000000000E+00  3.0000000000E+00
           strten      2.4432692354E-02  2.4432692354E-02  2.4432692354E-02
                       0.0000000000E+00  0.0000000000E+00  0.0000000000E+00
           symrel      1  0  0   0  1  0   0  0  1      -1  0  0   0  1  0   0  0 -1
                      -1  0  0   0 -1  0   0  0  1       1  0  0   0 -1  0   0  0 -1
                       0  1  0   1  0  0   0  0  1       0 -1  0   1  0  0   0  0 -1
                       0 -1  0  -1  0  0   0  0  1       0  1  0  -1  0  0   0  0 -1
                       0  0  1   1  0  0   0  1  0       0  0 -1   1  0  0   0 -1  0
                       0  0 -1  -1  0  0   0  1  0       0  0  1  -1  0  0   0 -1  0
                       1  0  0   0  0  1   0  1  0      -1  0  0   0  0  1   0 -1  0
                      -1  0  0   0  0 -1   0  1  0       1  0  0   0  0 -1   0 -1  0
                       0  1  0   0  0  1   1  0  0       0 -1  0   0  0  1  -1  0  0
                       0 -1  0   0  0 -1   1  0  0       0  1  0   0  0 -1  -1  0  0
                       0  0  1   0  1  0   1  0  0       0  0 -1   0  1  0  -1  0  0
                       0  0 -1   0 -1  0   1  0  0       0  0  1   0 -1  0  -1  0  0
            tnons      0.0000000  0.0000000  0.0000000     0.5000000  0.0000000  0.5000000
                       0.5000000  0.5000000  0.0000000     0.0000000  0.5000000  0.5000000
                       0.0000000  0.0000000  0.0000000     0.0000000  0.5000000  0.5000000
                       0.5000000  0.5000000  0.0000000     0.5000000  0.0000000  0.5000000
                       0.0000000  0.0000000  0.0000000     0.0000000  0.5000000  0.5000000
                       0.5000000  0.0000000  0.5000000     0.5000000  0.5000000  0.0000000
                       0.0000000  0.0000000  0.0000000     0.5000000  0.5000000  0.0000000
                       0.5000000  0.0000000  0.5000000     0.0000000  0.5000000  0.5000000
                       0.0000000  0.0000000  0.0000000     0.5000000  0.5000000  0.0000000
                       0.0000000  0.5000000  0.5000000     0.5000000  0.0000000  0.5000000
                       0.0000000  0.0000000  0.0000000     0.5000000  0.0000000  0.5000000
                       0.0000000  0.5000000  0.5000000     0.5000000  0.5000000  0.0000000
           tolvrs      1.00000000E-13
            typat      1  1  1  1
           xangst      3.7042404601E-02  3.7042404601E-02  3.7042404601E-02
                       1.8150778255E+00  1.8150778255E+00  3.7042404601E-02
                       1.8150778255E+00  3.7042404601E-02  1.8150778255E+00
                       3.7042404601E-02  1.8150778255E+00  1.8150778255E+00
            xcart      7.0000000000E-02  7.0000000000E-02  7.0000000000E-02
                       3.4300000000E+00  3.4300000000E+00  7.0000000000E-02
                       3.4300000000E+00  7.0000000000E-02  3.4300000000E+00
                       7.0000000000E-02  3.4300000000E+00  3.4300000000E+00
             xred      1.0000000000E-02  1.0000000000E-02  1.0000000000E-02
                       4.9000000000E-01  4.9000000000E-01  1.0000000000E-02
                       4.9000000000E-01  1.0000000000E-02  4.9000000000E-01
                       1.0000000000E-02  4.9000000000E-01  4.9000000000E-01
            znucl       26.00000

 Suggested references for the acknowledgment of ABINIT usage.

 [1] ABINIT : First-principles approach of materials and nanosystem properties.
 X. Gonze, B. Amadon, P.-M. Anglade, J.-M. Beuken, F. Bottin, P. Boulanger, F. Bruneval,
 D. Caliste, R. Caracas, M. Cote, T. Deutsch, L. Genovese, Ph. Ghosez, M. Giantomassi
 S. Goedecker, D.R. Hamann, P. Hermet, F. Jollet, G. Jomard, S. Leroux, M. Mancini, S. Mazevet,
 M.J.T. Oliveira, G. Onida, Y. Pouillon, T. Rangel, G.-M. Rignanese, D. Sangalli, R. Shaltaf,
 M. Torrent, M.J. Verstraete, G. Zerah, J.W. Zwanziger
 Computer Phys. Comm. 180, 2582-2615 (2009).
 Comment : the third generic paper describing the ABINIT project.
 Note that a version of this paper, that is not formatted for Computer Phys. Comm.
 The licence allows the authors to put it on the Web.

 [2] A brief introduction to the ABINIT software package.
 X. Gonze, G.-M. Rignanese, M. Verstraete, J.-M. Beuken, Y. Pouillon, R. Caracas, F. Jollet,
 M. Torrent, G. Zerah, M. Mikami, Ph. Ghosez, M. Veithen, J.-Y. Raty, V. Olevano, F. Bruneval,
 L. Reining, R. Godby, G. Onida, D.R. Hamann, and D.C. Allan.
 Z. Kristallogr. 220, 558-562 (2005).
 Comment : the second generic paper describing the ABINIT project. Note that this paper
 should be cited especially if you are using the GW part of ABINIT, as several authors
 of this part are not in the list of authors of the first or third paper.
 Note that it should not redistributed (Copyright by Oldenburg Wissenshaftverlag,
 the licence allows the authors to put it on the Web).

 And optionally :

 [3] First-principles computation of material properties : the ABINIT software project.
 X. Gonze, J.-M. Beuken, R. Caracas, F. Detraux, M. Fuchs, G.-M. Rignanese, L. Sindic,
 M. Verstraete, G. Zerah, F. Jollet, M. Torrent, A. Roy, M. Mikami, Ph. Ghosez, J.-Y. Raty, D.C. Allan.
 Comment : the original paper describing the ABINIT project.

 [4] Fast radix 2, 3, 4 and 5 kernels for Fast Fourier Transformations
 on computers with overlapping multiply-add instructions.
 S. Goedecker, SIAM J. on Scientific Computing 18, 1605 (1997).

 Calculation completed.
.Delivered    5 WARNINGs and   3 COMMENTs to log file.