.Version 7.4.3 of ABINIT

 ABINIT is a project of the Universite Catholique de Louvain,
 Corning Inc. and other collaborators, see ~abinit/doc/developers/contributors.txt .
 Please read ~abinit/doc/users/acknowledgments.html for suggested
 acknowledgments of the ABINIT effort.

.Starting date : Mon  4 Jun 2018.
- ( at 13h08 )

 herald :  WARNING -
  The starting date is more than 3 years after the initial release
  of this version of ABINIT, namely Aug 2013.
  This version of ABINIT is not supported anymore.
  Action : please, switch to a more recent version of ABINIT.
- input  file    -> tbasepar_2.in
- output file    -> tbasepar_2.out
- root for input  files -> tbasepar_2i
- root for output files -> tbasepar_2o

 Symmetries : space group P-4 3 m (#215); Bravais cP (primitive cubic)
   intxc =         0  ionmov =         0    iscf =         7 xclevel =         1
  lmnmax =         6   lnmax =         6   mband =        40  mffmem =         1
P  mgfft =        36   mkmem =         1 mpssoang=         3     mpw =      2698
  mqgrid =      3001   natom =         4    nfft =     46656    nkpt =         1
  nloalg =         4  nspden =         2 nspinor =         1  nsppol =         2
    nsym =        24  n1xccc =         0  ntypat =         1  occopt =         7
  Rough estimation (10% accuracy) of disk space for files :

------------- Echo of variables that govern the present computation ------------
-
- outvars: echo of selected default values
-   accesswff0 =  0 , fftalg0 =112 , wfoptalg0 =  0
-
- outvars: echo of global parameters not present in the input file
-  max_nthreads =    0
-
 -outvars: echo values of preprocessed input variables --------
            acell      7.0000000000E+00  7.0000000000E+00  7.0000000000E+00 Bohr
              amu      5.58470000E+01
             ecut      3.00000000E+01 Hartree
              kpt      2.50000000E-01  2.50000000E-01  2.50000000E-01
         kptrlatt        2    0    0      0    2    0      0    0    2
          kptrlen      1.40000000E+01
P           mkmem           1
            natom           4
            nband          40
            ngfft          36      36      36
             nkpt           1
            nline           5
           nspden           2
           nsppol           2
            nstep           5
             nsym          24
           ntypat           1
              occ      1.000000  1.000000  1.000000  1.000000  1.000000  1.000000
                       1.000000  1.000000  1.000000  1.000000  1.000000  1.000000
                       1.000000  1.000000  1.000000  1.000000  0.000000  0.000000
                       0.000000  0.000000  0.000000  0.000000  0.000000  0.000000
                       0.000000  0.000000  0.000000  0.000000  0.000000  0.000000
                       0.000000  0.000000  0.000000  0.000000  0.000000  0.000000
                       0.000000  0.000000  0.000000  0.000000
                       1.000000  1.000000  1.000000  1.000000  1.000000  1.000000
                       1.000000  1.000000  1.000000  1.000000  1.000000  1.000000
                       1.000000  1.000000  1.000000  1.000000  0.000000  0.000000
                       0.000000  0.000000  0.000000  0.000000  0.000000  0.000000
                       0.000000  0.000000  0.000000  0.000000  0.000000  0.000000
                       0.000000  0.000000  0.000000  0.000000  0.000000  0.000000
                       0.000000  0.000000  0.000000  0.000000
           occopt           7
           shiftk      5.00000000E-01  5.00000000E-01  5.00000000E-01
          spgroup         215
           spinat      0.0000000000E+00  0.0000000000E+00  3.0000000000E+00
                       0.0000000000E+00  0.0000000000E+00  3.0000000000E+00
                       0.0000000000E+00  0.0000000000E+00  3.0000000000E+00
                       0.0000000000E+00  0.0000000000E+00  3.0000000000E+00
           symrel      1  0  0   0  1  0   0  0  1      -1  0  0   0  1  0   0  0 -1
                      -1  0  0   0 -1  0   0  0  1       1  0  0   0 -1  0   0  0 -1
                       0  1  0   1  0  0   0  0  1       0 -1  0   1  0  0   0  0 -1
                       0 -1  0  -1  0  0   0  0  1       0  1  0  -1  0  0   0  0 -1
                       0  0  1   1  0  0   0  1  0       0  0 -1   1  0  0   0 -1  0
                       0  0 -1  -1  0  0   0  1  0       0  0  1  -1  0  0   0 -1  0
                       1  0  0   0  0  1   0  1  0      -1  0  0   0  0  1   0 -1  0
                      -1  0  0   0  0 -1   0  1  0       1  0  0   0  0 -1   0 -1  0
                       0  1  0   0  0  1   1  0  0       0 -1  0   0  0  1  -1  0  0
                       0 -1  0   0  0 -1   1  0  0       0  1  0   0  0 -1  -1  0  0
                       0  0  1   0  1  0   1  0  0       0  0 -1   0  1  0  -1  0  0
                       0  0 -1   0 -1  0   1  0  0       0  0  1   0 -1  0  -1  0  0
            tnons      0.0000000  0.0000000  0.0000000     0.5000000  0.0000000  0.5000000
                       0.5000000  0.5000000  0.0000000     0.0000000  0.5000000  0.5000000
                       0.0000000  0.0000000  0.0000000     0.0000000  0.5000000  0.5000000
                       0.5000000  0.5000000  0.0000000     0.5000000  0.0000000  0.5000000
                       0.0000000  0.0000000  0.0000000     0.0000000  0.5000000  0.5000000
                       0.5000000  0.0000000  0.5000000     0.5000000  0.5000000  0.0000000
                       0.0000000  0.0000000  0.0000000     0.5000000  0.5000000  0.0000000
                       0.5000000  0.0000000  0.5000000     0.0000000  0.5000000  0.5000000
                       0.0000000  0.0000000  0.0000000     0.5000000  0.5000000  0.0000000
                       0.0000000  0.5000000  0.5000000     0.5000000  0.0000000  0.5000000
                       0.0000000  0.0000000  0.0000000     0.5000000  0.0000000  0.5000000
                       0.0000000  0.5000000  0.5000000     0.5000000  0.5000000  0.0000000
           tolvrs      1.00000000E-13
            typat      1  1  1  1
           xangst      3.7042404601E-02  3.7042404601E-02  3.7042404601E-02
                       1.8150778255E+00  1.8150778255E+00  3.7042404601E-02
                       1.8150778255E+00  3.7042404601E-02  1.8150778255E+00
                       3.7042404601E-02  1.8150778255E+00  1.8150778255E+00
            xcart      7.0000000000E-02  7.0000000000E-02  7.0000000000E-02
                       3.4300000000E+00  3.4300000000E+00  7.0000000000E-02
                       3.4300000000E+00  7.0000000000E-02  3.4300000000E+00
                       7.0000000000E-02  3.4300000000E+00  3.4300000000E+00
             xred      1.0000000000E-02  1.0000000000E-02  1.0000000000E-02
                       4.9000000000E-01  4.9000000000E-01  1.0000000000E-02
                       4.9000000000E-01  1.0000000000E-02  4.9000000000E-01
                       1.0000000000E-02  4.9000000000E-01  4.9000000000E-01
            znucl       26.00000

 chkinp: Checking input parameters for consistency.

== DATASET  1 ==================================================================
-   nproc =    1

 Real(R)+Recip(G) space primitive vectors, cartesian coordinates (Bohr,Bohr^-1):
 R(1)=  7.0000000  0.0000000  0.0000000  G(1)=  0.1428571  0.0000000  0.0000000
 R(2)=  0.0000000  7.0000000  0.0000000  G(2)=  0.0000000  0.1428571  0.0000000
 R(3)=  0.0000000  0.0000000  7.0000000  G(3)=  0.0000000  0.0000000  0.1428571
 Unit cell volume ucvol=  3.4300000E+02 bohr^3
 Angles (23,13,12)=  9.00000000E+01  9.00000000E+01  9.00000000E+01 degrees

 getcut: wavevector=  0.0000  0.0000  0.0000  ngfft=  36  36  36
         ecut(hartree)=     30.000   => boxcut(ratio)=   2.08583

--- Pseudopotential description ------------------------------------------------
- pspini: atom type   1  psp file is 26fe.8.hgh
- pspatm: opening atomic psp file    26fe.8.hgh
- Hartwigsen-Goedecker-Hutter psp for Fe,  from PRB58, 3641 (1998)
- 26.00000   8.00000     10605                znucl, zion, pspdat
    3    1    2    0      2001   0.00000      pspcod,pspxc,lmax,lloc,mmax,r2well
 rloc=   0.6100000
 cc1 =   0.0000000; cc2 =   0.0000000; cc3 =   0.0000000; cc4 =   0.0000000
 rrs =   0.4544820; h11s=   3.0166400; h22s=   2.5830380; h33s=   3.2576350
 rrp =   0.6389030; h11p=   1.4996420; h22p=   0.3268740; h33p=   0.0000000
                    k11p=  -0.0149090; k22p=   0.0497930; k33p=   0.0000000
 rrd =   0.3087320; h11d=  -9.1453540; h22d=   0.0000000; h33d=   0.0000000
                    k11d=   0.0057220; k22d=   0.0000000; k33d=   0.0000000
-  Local part computed in reciprocal space.

 pspatm : COMMENT -
  the projectors are not normalized,
  so that the KB energies are not consistent with
  definition in PRB44, 8503 (1991).
  However, this does not influence the results obtained hereafter.
 pspatm: epsatm=   18.70378602
         --- l  ekb(1:nproj) -->
             0    0.268589    0.812381    1.866551
             1    0.234598    1.143985
             2   -0.034669
 pspatm: atomic psp has been read  and splines computed

   2.39408461E+03                                ecore*ucvol(ha*bohr**3)

P newkpt: treating     40 bands with npw=    2698 for ikpt=   1 by node    0
P newkpt: treating     40 bands with npw=    2698 for ikpt=   1 by node    0

_setup2: Arith. and geom. avg. npw (full set) are    2698.000    2698.000

     iter   Etot(hartree)     deltaE(h) residm    vres2    magn
 ETOT  1  -71.209220089713    -7.12E+01 2.09E-02 2.93E+04 8.000
 ETOT  2  -70.934958509442     2.74E-01 8.20E-05 2.73E+04 2.753
 ETOT  3  -79.912237438827    -8.98E+00 6.55E-02 3.25E+02 8.211
 ETOT  4  -80.041283207263    -1.29E-01 1.76E-04 9.26E+01 8.950
 ETOT  5  -80.082004277437    -4.07E-02 2.60E-04 1.18E+02 10.43

 Cartesian components of stress tensor (hartree/bohr^3)
  sigma(1 1)=  2.44326924E-02  sigma(3 2)=  0.00000000E+00
  sigma(2 2)=  2.44326924E-02  sigma(3 1)=  0.00000000E+00
  sigma(3 3)=  2.44326924E-02  sigma(2 1)=  0.00000000E+00

 scprqt:  WARNING -
  nstep=    5 was not enough SCF cycles to converge;
  potential residual=  1.181E+02 exceeds tolvrs=  1.000E-13

 ----iterations are completed or convergence reached----

 Mean square residual over all n,k,spin=   1.0644E-04; max=  2.5982E-04
   0.2500  0.2500  0.2500    1  2.59823E-04 kpt; spin; max resid(k); each band:
  3.23E-05 2.60E-04 2.48E-04 2.48E-04 2.20E-04 2.17E-04 2.17E-04 2.10E-04
  2.04E-04 2.04E-04 2.06E-04 9.49E-05 9.49E-05 6.98E-05 6.94E-05 6.94E-05
  1.83E-05 1.83E-05 2.87E-06 2.87E-06 2.20E-06 2.38E-04 2.28E-04 2.28E-04
  1.78E-04 1.78E-04 1.77E-04 1.59E-04 1.79E-04 1.79E-04 1.84E-04 7.02E-05
  7.18E-05 7.18E-05 1.70E-04 1.70E-04 1.66E-04 4.62E-05 8.82E-05 8.82E-05
   0.2500  0.2500  0.2500    2  1.46330E-04 kpt; spin; max resid(k); each band:
  1.72E-05 1.43E-04 1.46E-04 1.46E-04 1.26E-04 1.23E-04 1.23E-04 9.73E-05
  1.14E-04 1.14E-04 9.72E-05 3.29E-05 3.29E-05 4.09E-05 4.09E-05 4.24E-05
  7.99E-06 7.99E-06 1.11E-05 1.11E-05 1.04E-05 1.08E-04 1.04E-04 1.04E-04
  7.12E-05 7.12E-05 7.32E-05 9.59E-05 1.29E-04 1.29E-04 1.07E-04 3.75E-05
  3.83E-05 3.83E-05 8.71E-05 8.71E-05 8.74E-05 3.06E-05 2.55E-05 2.55E-05
 reduced coordinates (array xred) for    4 atoms
       0.010000000000      0.010000000000      0.010000000000
       0.490000000000      0.490000000000      0.010000000000
       0.490000000000      0.010000000000      0.490000000000
       0.010000000000      0.490000000000      0.490000000000
 rms dE/dt=  4.1185E-02; max dE/dt=  4.1185E-02; dE/dt below (all hartree)
    1       0.041184826183      0.041184826183      0.041184826183
    2      -0.041184826183     -0.041184826183      0.041184826183
    3      -0.041184826183      0.041184826183     -0.041184826183
    4       0.041184826183     -0.041184826183     -0.041184826183

 cartesian coordinates (angstrom) at end:
    1      0.03704240460130     0.03704240460130     0.03704240460130
    2      1.81507782546370     1.81507782546370     0.03704240460130
    3      1.81507782546370     0.03704240460130     1.81507782546370
    4      0.03704240460130     1.81507782546370     1.81507782546370

 cartesian forces (hartree/bohr) at end:
    1     -0.00588354659756    -0.00588354659756    -0.00588354659756
    2      0.00588354659756     0.00588354659756    -0.00588354659756
    3      0.00588354659756    -0.00588354659756     0.00588354659756
    4     -0.00588354659756     0.00588354659756     0.00588354659756
 frms,max,avg= 5.8835466E-03 5.8835466E-03   0.000E+00  0.000E+00  0.000E+00 h/b

 cartesian forces (eV/Angstrom) at end:
    1     -0.30254410493430    -0.30254410493430    -0.30254410493430
    2      0.30254410493430     0.30254410493430    -0.30254410493430
    3      0.30254410493430    -0.30254410493430     0.30254410493430
    4     -0.30254410493430     0.30254410493430     0.30254410493430
 frms,max,avg= 3.0254410E-01 3.0254410E-01   0.000E+00  0.000E+00  0.000E+00 e/A
 length scales=  7.000000000000  7.000000000000  7.000000000000 bohr
              =  3.704240460130  3.704240460130  3.704240460130 angstroms
 prteigrs : about to open file tbasepar_2o_EIG
 Fermi (or HOMO) energy (hartree) =   0.24945   Average Vxc (hartree)=  -0.44892
 Magnetisation (Bohr magneton)=  1.04345305E+01
 Total spin up =  2.12172653E+01   Total spin down =  1.07827347E+01
 Eigenvalues (hartree) for nkpt=   1  k points, SPIN UP:
 kpt#   1, nband= 40, wtk=  1.00000, kpt=  0.2500  0.2500  0.2500 (reduced coord)
  -0.01914   0.05361   0.05573   0.05573   0.07534   0.07643   0.07643   0.11405
   0.11575   0.11575   0.11976   0.12845   0.12845   0.13822   0.13958   0.13958
   0.15427   0.15427   0.17926   0.17926   0.18533   0.28795   0.28956   0.28956
   0.50279   0.50279   0.50328   0.69693   0.71336   0.71336   0.73079   0.81326
   0.81492   0.81492   0.96555   0.96555   0.96698   1.02210   1.05943   1.05943
      occupation numbers for kpt#   1
   1.00000   1.00000   1.00000   1.00000   1.00000   1.00000   1.00000   1.00000
   1.00000   1.00000   1.00000   0.99999   0.99999   0.99996   0.99995   0.99995
   0.99962   0.99962   0.99346   0.99346   0.98831   0.08673   0.07812   0.07812
   0.00000   0.00000   0.00000   0.00000   0.00000   0.00000   0.00000   0.00000
   0.00000   0.00000   0.00000   0.00000   0.00000   0.00000   0.00000   0.00000
 Eigenvalues (hartree) for nkpt=   1  k points, SPIN DOWN:
 kpt#   1, nband= 40, wtk=  1.00000, kpt=  0.2500  0.2500  0.2500 (reduced coord)
   0.00216   0.13831   0.13969   0.13969   0.17905   0.18058   0.18058   0.22678
   0.23101   0.23101   0.23515   0.26621   0.26621   0.28774   0.28774   0.28902
   0.31293   0.31293   0.34214   0.34214   0.34632   0.38983   0.39239   0.39239
   0.56405   0.56405   0.56425   0.75106   0.77006   0.77006   0.78703   0.85123
   0.85268   0.85268   1.00774   1.00774   1.00786   1.03555   1.10439   1.10439
      occupation numbers for kpt#   1
   1.00000   0.99996   0.99995   0.99995   0.99360   0.99255   0.99255   0.78856
   0.74286   0.74286   0.69351   0.27672   0.27672   0.08792   0.08792   0.08092
   0.01241   0.01241   0.00052   0.00052   0.00031   0.00000   0.00000   0.00000
   0.00000   0.00000   0.00000   0.00000   0.00000   0.00000   0.00000   0.00000
   0.00000   0.00000   0.00000   0.00000   0.00000   0.00000   0.00000   0.00000
 Total charge density [el/Bohr^3]
,     Maximum=    9.7821E-01  at reduced coord.    0.4167    0.4444    0.9722
,Next maximum=    9.7821E-01  at reduced coord.    0.4444    0.4167    0.9722
,     Minimum=    7.6935E-03  at reduced coord.    0.0000    0.0000    0.0000
,Next minimum=    7.6935E-03  at reduced coord.    0.5000    0.5000    0.0000
,  Integrated=    3.2000E+01
 Spin up density      [el/Bohr^3]
,     Maximum=    7.5952E-01  at reduced coord.    0.5000    0.5000    0.9167
,Next maximum=    7.5952E-01  at reduced coord.    0.0000    0.0000    0.9167
,     Minimum=    5.7361E-03  at reduced coord.    0.0000    0.0000    0.0000
,Next minimum=    5.7361E-03  at reduced coord.    0.5000    0.5000    0.0000
,  Integrated=    2.1217E+01
 Spin down density    [el/Bohr^3]
,     Maximum=    2.4613E-01  at reduced coord.    0.0556    0.9444    0.9444
,Next maximum=    2.4613E-01  at reduced coord.    0.4444    0.5556    0.9444
,     Minimum=    1.9574E-03  at reduced coord.    0.0000    0.0000    0.0000
,Next minimum=    1.9574E-03  at reduced coord.    0.5000    0.5000    0.0000
,  Integrated=    1.0783E+01
 Magnetization (spin up - spin down) [el/Bohr^3]
,     Maximum=    5.8798E-01  at reduced coord.    0.5000    0.5000    0.9167
,Next maximum=    5.8798E-01  at reduced coord.    0.0000    0.0000    0.9167
,     Minimum=   -6.7358E-03  at reduced coord.    0.2500    0.2500    0.2500
,Next minimum=   -6.6446E-03  at reduced coord.    0.2500    0.2500    0.2222
,  Integrated=    1.0435E+01
 Relative magnetization (=zeta, between -1 and 1)
,     Maximum=    6.3839E-01  at reduced coord.    0.1111    0.5000    0.5000
,Next maximum=    6.3839E-01  at reduced coord.    0.0000    0.3889    0.5000
,     Minimum=   -1.9358E-01  at reduced coord.    0.5000    0.0000    0.0000
,Next minimum=   -1.9358E-01  at reduced coord.    0.0000    0.5000    0.0000

 Components of total free energy (in Hartree) :

    Kinetic energy  =  1.24682445608026E+02
    Hartree energy  =  1.42231603670195E+01
    XC energy       = -1.69454897052488E+01
    Ewald energy    = -8.36499227815283E+01
    PspCore energy  =  6.97983851565236E+00
    Loc. psp. energy= -4.80180300697309E+01
    NL   psp  energy= -7.72670737223896E+01
    >>>>> Internal E= -7.99950717881996E+01

    -kT*entropy     = -8.69324892376531E-02
    >>>>>>>>> Etotal= -8.00820042774372E+01

 Other information on the energy :
    Total energy(eV)= -2.17914215867151E+03 ; Band energy (Ha)=   4.3025605165E+00

 Cartesian components of stress tensor (hartree/bohr^3)
  sigma(1 1)=  2.44326924E-02  sigma(3 2)=  0.00000000E+00
  sigma(2 2)=  2.44326924E-02  sigma(3 1)=  0.00000000E+00
  sigma(3 3)=  2.44326924E-02  sigma(2 1)=  0.00000000E+00

-Cartesian components of stress tensor (GPa)         [Pressure= -7.1883E+02 GPa]
- sigma(1 1)=  7.18834506E+02  sigma(3 2)=  0.00000000E+00
- sigma(2 2)=  7.18834506E+02  sigma(3 1)=  0.00000000E+00
- sigma(3 3)=  7.18834506E+02  sigma(2 1)=  0.00000000E+00

== END DATASET(S) ==============================================================

 -outvars: echo values of variables after computation  --------
            acell      7.0000000000E+00  7.0000000000E+00  7.0000000000E+00 Bohr
              amu      5.58470000E+01
             ecut      3.00000000E+01 Hartree
           etotal     -8.0082004277E+01
            fcart     -5.8835465976E-03 -5.8835465976E-03 -5.8835465976E-03
                       5.8835465976E-03  5.8835465976E-03 -5.8835465976E-03
                       5.8835465976E-03 -5.8835465976E-03  5.8835465976E-03
                      -5.8835465976E-03  5.8835465976E-03  5.8835465976E-03
              kpt      2.50000000E-01  2.50000000E-01  2.50000000E-01
         kptrlatt        2    0    0      0    2    0      0    0    2
          kptrlen      1.40000000E+01
P           mkmem           1
            natom           4
            nband          40
            ngfft          36      36      36
             nkpt           1
            nline           5
           nspden           2
           nsppol           2
            nstep           5
             nsym          24
           ntypat           1
              occ      1.000000  1.000000  1.000000  1.000000  1.000000  1.000000
                       1.000000  0.999999  0.999999  0.999999  0.999998  0.999991
                       0.999991  0.999958  0.999949  0.999949  0.999617  0.999617
                       0.993465  0.993465  0.988310  0.086726  0.078117  0.078117
                       0.000000  0.000000  0.000000  0.000000  0.000000  0.000000
                       0.000000  0.000000  0.000000  0.000000  0.000000  0.000000
                       0.000000  0.000000  0.000000  0.000000
                       1.000000  0.999957  0.999948  0.999948  0.993600  0.992554
                       0.992554  0.788563  0.742862  0.742862  0.693514  0.276725
                       0.276725  0.087915  0.087915  0.080919  0.012408  0.012408
                       0.000525  0.000525  0.000308  0.000000  0.000000  0.000000
                       0.000000  0.000000  0.000000  0.000000  0.000000  0.000000
                       0.000000  0.000000  0.000000  0.000000  0.000000  0.000000
                       0.000000  0.000000  0.000000  0.000000
           occopt           7
           shiftk      5.00000000E-01  5.00000000E-01  5.00000000E-01
          spgroup         215
           spinat      0.0000000000E+00  0.0000000000E+00  3.0000000000E+00
                       0.0000000000E+00  0.0000000000E+00  3.0000000000E+00
                       0.0000000000E+00  0.0000000000E+00  3.0000000000E+00
                       0.0000000000E+00  0.0000000000E+00  3.0000000000E+00
           strten      2.4432692354E-02  2.4432692354E-02  2.4432692354E-02
                       0.0000000000E+00  0.0000000000E+00  0.0000000000E+00
           symrel      1  0  0   0  1  0   0  0  1      -1  0  0   0  1  0   0  0 -1
                      -1  0  0   0 -1  0   0  0  1       1  0  0   0 -1  0   0  0 -1
                       0  1  0   1  0  0   0  0  1       0 -1  0   1  0  0   0  0 -1
                       0 -1  0  -1  0  0   0  0  1       0  1  0  -1  0  0   0  0 -1
                       0  0  1   1  0  0   0  1  0       0  0 -1   1  0  0   0 -1  0
                       0  0 -1  -1  0  0   0  1  0       0  0  1  -1  0  0   0 -1  0
                       1  0  0   0  0  1   0  1  0      -1  0  0   0  0  1   0 -1  0
                      -1  0  0   0  0 -1   0  1  0       1  0  0   0  0 -1   0 -1  0
                       0  1  0   0  0  1   1  0  0       0 -1  0   0  0  1  -1  0  0
                       0 -1  0   0  0 -1   1  0  0       0  1  0   0  0 -1  -1  0  0
                       0  0  1   0  1  0   1  0  0       0  0 -1   0  1  0  -1  0  0
                       0  0 -1   0 -1  0   1  0  0       0  0  1   0 -1  0  -1  0  0
            tnons      0.0000000  0.0000000  0.0000000     0.5000000  0.0000000  0.5000000
                       0.5000000  0.5000000  0.0000000     0.0000000  0.5000000  0.5000000
                       0.0000000  0.0000000  0.0000000     0.0000000  0.5000000  0.5000000
                       0.5000000  0.5000000  0.0000000     0.5000000  0.0000000  0.5000000
                       0.0000000  0.0000000  0.0000000     0.0000000  0.5000000  0.5000000
                       0.5000000  0.0000000  0.5000000     0.5000000  0.5000000  0.0000000
                       0.0000000  0.0000000  0.0000000     0.5000000  0.5000000  0.0000000
                       0.5000000  0.0000000  0.5000000     0.0000000  0.5000000  0.5000000
                       0.0000000  0.0000000  0.0000000     0.5000000  0.5000000  0.0000000
                       0.0000000  0.5000000  0.5000000     0.5000000  0.0000000  0.5000000
                       0.0000000  0.0000000  0.0000000     0.5000000  0.0000000  0.5000000
                       0.0000000  0.5000000  0.5000000     0.5000000  0.5000000  0.0000000
           tolvrs      1.00000000E-13
            typat      1  1  1  1
           xangst      3.7042404601E-02  3.7042404601E-02  3.7042404601E-02
                       1.8150778255E+00  1.8150778255E+00  3.7042404601E-02
                       1.8150778255E+00  3.7042404601E-02  1.8150778255E+00
                       3.7042404601E-02  1.8150778255E+00  1.8150778255E+00
            xcart      7.0000000000E-02  7.0000000000E-02  7.0000000000E-02
                       3.4300000000E+00  3.4300000000E+00  7.0000000000E-02
                       3.4300000000E+00  7.0000000000E-02  3.4300000000E+00
                       7.0000000000E-02  3.4300000000E+00  3.4300000000E+00
             xred      1.0000000000E-02  1.0000000000E-02  1.0000000000E-02
                       4.9000000000E-01  4.9000000000E-01  1.0000000000E-02
                       4.9000000000E-01  1.0000000000E-02  4.9000000000E-01
                       1.0000000000E-02  4.9000000000E-01  4.9000000000E-01
            znucl       26.00000

- Timing analysis has been suppressed with timopt=0

 Suggested references for the acknowledgment of ABINIT usage.

 [1] ABINIT : First-principles approach of materials and nanosystem properties.
 X. Gonze, B. Amadon, P.-M. Anglade, J.-M. Beuken, F. Bottin, P. Boulanger, F. Bruneval,
 D. Caliste, R. Caracas, M. Cote, T. Deutsch, L. Genovese, Ph. Ghosez, M. Giantomassi
 S. Goedecker, D.R. Hamann, P. Hermet, F. Jollet, G. Jomard, S. Leroux, M. Mancini, S. Mazevet,
 M.J.T. Oliveira, G. Onida, Y. Pouillon, T. Rangel, G.-M. Rignanese, D. Sangalli, R. Shaltaf,
 M. Torrent, M.J. Verstraete, G. Zerah, J.W. Zwanziger
 Computer Phys. Comm. 180, 2582-2615 (2009).
 Comment : the third generic paper describing the ABINIT project.
 Note that a version of this paper, that is not formatted for Computer Phys. Comm.
 The licence allows the authors to put it on the Web.

 [2] A brief introduction to the ABINIT software package.
 X. Gonze, G.-M. Rignanese, M. Verstraete, J.-M. Beuken, Y. Pouillon, R. Caracas, F. Jollet,
 M. Torrent, G. Zerah, M. Mikami, Ph. Ghosez, M. Veithen, J.-Y. Raty, V. Olevano, F. Bruneval,
 L. Reining, R. Godby, G. Onida, D.R. Hamann, and D.C. Allan.
 Z. Kristallogr. 220, 558-562 (2005).
 Comment : the second generic paper describing the ABINIT project. Note that this paper
 should be cited especially if you are using the GW part of ABINIT, as several authors
 of this part are not in the list of authors of the first or third paper.
 Note that it should not redistributed (Copyright by Oldenburg Wissenshaftverlag,
 the licence allows the authors to put it on the Web).

 And optionally :

 [3] First-principles computation of material properties : the ABINIT software project.
 X. Gonze, J.-M. Beuken, R. Caracas, F. Detraux, M. Fuchs, G.-M. Rignanese, L. Sindic,
 M. Verstraete, G. Zerah, F. Jollet, M. Torrent, A. Roy, M. Mikami, Ph. Ghosez, J.-Y. Raty, D.C. Allan.
 Comment : the original paper describing the ABINIT project.

 [4] Fast radix 2, 3, 4 and 5 kernels for Fast Fourier Transformations
 on computers with overlapping multiply-add instructions.
 S. Goedecker, SIAM J. on Scientific Computing 18, 1605 (1997).
-

 Calculation completed.
.Delivered    5 WARNINGs and   3 COMMENTs to log file.