.Version 7.4.3 of ABINIT

 ABINIT is a project of the Universite Catholique de Louvain,
 Corning Inc. and other collaborators, see ~abinit/doc/developers/contributors.txt .
 Please read ~abinit/doc/users/acknowledgments.html for suggested
 acknowledgments of the ABINIT effort.

.Starting date : Mon  4 Jun 2018.
- ( at 12h57 )

 herald :  WARNING -
  The starting date is more than 3 years after the initial release
  of this version of ABINIT, namely Aug 2013.
  This version of ABINIT is not supported anymore.
  Action : please, switch to a more recent version of ABINIT.
- input  file    -> tbase4_5.in
- output file    -> tbase4_5.out
- root for input  files -> tbase4_xi
- root for output files -> tbase4_xo

 Symmetries : space group P4/m m m (#123); Bravais tP (primitive tetrag.)
   intxc =         0  ionmov =         2    iscf =         7 xclevel =         1
  lmnmax =         3   lnmax =         3   mband =         7  mffmem =         1
P  mgfft =        36   mkmem =         6 mpssoang=         3     mpw =       300
  mqgrid =      3001   natom =         3    nfft =      5184    nkpt =         6
  nloalg =         4  nspden =         1 nspinor =         1  nsppol =         1
    nsym =        16  n1xccc =         0  ntypat =         1  occopt =         4
  Rough estimation (10% accuracy) of disk space for files :

------------- Echo of variables that govern the present computation ------------
-
- outvars: echo of selected default values
-   accesswff0 =  0 , fftalg0 =112 , wfoptalg0 =  0
-
- outvars: echo of global parameters not present in the input file
-  max_nthreads =    0
-
 -outvars: echo values of preprocessed input variables --------
            acell      7.5055909000E+00  7.5055909000E+00  7.5055909000E+00 Bohr
              amu      2.69815390E+01
             ecut      6.00000000E+00 Hartree
           ionmov           2
              kpt      0.00000000E+00  1.25000000E-01  0.00000000E+00
                       0.00000000E+00  3.75000000E-01  0.00000000E+00
                       1.25000000E-01  2.50000000E-01  0.00000000E+00
                       1.25000000E-01  5.00000000E-01  0.00000000E+00
                       2.50000000E-01  3.75000000E-01  0.00000000E+00
                       3.75000000E-01  5.00000000E-01  0.00000000E+00
         kptrlatt        4   -4    0      4    4    0      0    0    1
          kptrlen      1.50111818E+01
P           mkmem           6
            natom           3
            nband           7
            ngfft          12      12      36
             nkpt           6
            nstep          10
             nsym          16
            ntime          10
           ntypat           1
              occ      2.000000  2.000000  2.000000  2.000000  1.000000  0.000000
                       0.000000
                       2.000000  2.000000  2.000000  2.000000  1.000000  0.000000
                       0.000000
                       2.000000  2.000000  2.000000  2.000000  1.000000  0.000000
                       0.000000
                       2.000000  2.000000  2.000000  2.000000  1.000000  0.000000
                       0.000000
                       2.000000  2.000000  2.000000  2.000000  1.000000  0.000000
                       0.000000
                       2.000000  2.000000  2.000000  2.000000  1.000000  0.000000
                       0.000000
           occopt           4
        optforces           1
            rprim      5.0000000000E-01 -5.0000000000E-01  0.0000000000E+00
                       5.0000000000E-01  5.0000000000E-01  0.0000000000E+00
                       0.0000000000E+00  0.0000000000E+00  2.0000000000E+00
           shiftk     -5.00000000E-01  5.00000000E-01  0.00000000E+00
          spgroup         123
           symrel      1  0  0   0  1  0   0  0  1      -1  0  0   0 -1  0   0  0 -1
                      -1  0  0   0  1  0   0  0 -1       1  0  0   0 -1  0   0  0  1
                      -1  0  0   0 -1  0   0  0  1       1  0  0   0  1  0   0  0 -1
                       1  0  0   0 -1  0   0  0 -1      -1  0  0   0  1  0   0  0  1
                       0  1  0   1  0  0   0  0  1       0 -1  0  -1  0  0   0  0 -1
                       0 -1  0   1  0  0   0  0 -1       0  1  0  -1  0  0   0  0  1
                       0 -1  0  -1  0  0   0  0  1       0  1  0   1  0  0   0  0 -1
                       0  1  0  -1  0  0   0  0 -1       0 -1  0   1  0  0   0  0  1
            tnons      0.0000000  0.0000000  0.0000000     0.0000000  0.0000000  0.5000000
                       0.0000000  0.0000000  0.5000000     0.0000000  0.0000000  0.0000000
                       0.0000000  0.0000000  0.0000000     0.0000000  0.0000000  0.5000000
                       0.0000000  0.0000000  0.5000000     0.0000000  0.0000000  0.0000000
                       0.0000000  0.0000000  0.0000000     0.0000000  0.0000000  0.5000000
                       0.0000000  0.0000000  0.5000000     0.0000000  0.0000000  0.0000000
                       0.0000000  0.0000000  0.0000000     0.0000000  0.0000000  0.5000000
                       0.0000000  0.0000000  0.5000000     0.0000000  0.0000000  0.0000000
           toldff      5.00000000E-05
           tolmxf      5.00000000E-04
            typat      1  1  1
              wtk        0.12500    0.12500    0.25000    0.12500    0.25000    0.12500
           xangst      0.0000000000E+00  0.0000000000E+00  0.0000000000E+00
                       1.9858938206E+00  0.0000000000E+00  1.9858938206E+00
                       0.0000000000E+00  0.0000000000E+00  3.9717876413E+00
            xcart      0.0000000000E+00  0.0000000000E+00  0.0000000000E+00
                       3.7527954500E+00  0.0000000000E+00  3.7527954500E+00
                       0.0000000000E+00  0.0000000000E+00  7.5055909000E+00
             xred      0.0000000000E+00  0.0000000000E+00  0.0000000000E+00
                       5.0000000000E-01  5.0000000000E-01  2.5000000000E-01
                       0.0000000000E+00  0.0000000000E+00  5.0000000000E-01
            znucl       13.00000

 chkinp: Checking input parameters for consistency.

== DATASET  1 ==================================================================
-   nproc =    1

 Real(R)+Recip(G) space primitive vectors, cartesian coordinates (Bohr,Bohr^-1):
 R(1)=  3.7527955 -3.7527954  0.0000000  G(1)=  0.1332340 -0.1332340  0.0000000
 R(2)=  3.7527955  3.7527955  0.0000000  G(2)=  0.1332340  0.1332340  0.0000000
 R(3)=  0.0000000  0.0000000 15.0111818  G(3)=  0.0000000  0.0000000  0.0666170
 Unit cell volume ucvol=  4.2281917E+02 bohr^3
 Angles (23,13,12)=  9.00000000E+01  9.00000000E+01  9.00000000E+01 degrees

 getcut: wavevector=  0.0000  0.0000  0.0000  ngfft=  12  12  36
         ecut(hartree)=      6.000   => boxcut(ratio)=   2.05055

--- Pseudopotential description ------------------------------------------------
- pspini: atom type   1  psp file is 13al.981214.fhi
- pspatm: opening atomic psp file    13al.981214.fhi
- Aluminum, fhi98PP : Hamann-type, LDA CA PerdewWang, l=2 local
- 13.00000   3.00000    981214                znucl, zion, pspdat
    6    7    2    2       493   0.00000      pspcod,pspxc,lmax,lloc,mmax,r2well
  No XC core correction.
  1.024700          amesh (Hamman grid)
 pspatm: epsatm=    1.36305739
         --- l  ekb(1:nproj) -->
             0    1.768744
             1    0.900554
 pspatm: atomic psp has been read  and splines computed

   3.68025494E+01                                ecore*ucvol(ha*bohr**3)

P newkpt: treating      7 bands with npw=     286 for ikpt=   1 by node    0
P newkpt: treating      7 bands with npw=     290 for ikpt=   2 by node    0
P newkpt: treating      7 bands with npw=     290 for ikpt=   3 by node    0
P newkpt: treating      7 bands with npw=     300 for ikpt=   4 by node    0
P newkpt: treating      7 bands with npw=     298 for ikpt=   5 by node    0
P newkpt: treating      7 bands with npw=     300 for ikpt=   6 by node    0

_setup2: Arith. and geom. avg. npw (full set) are     294.000     293.954

=== [ionmov= 2] Broyden-Fletcher-Goldfard-Shanno method (forces)

--- Iteration: ( 1/10) Internal Cycle: (1/1)

---SELF-CONSISTENT-FIELD CONVERGENCE--------------------------------------------

     iter   Etot(hartree)      deltaE(h)  residm     vres2    diffor    maxfor
 ETOT  1  -6.2039492789620    -6.204E+00 6.937E-03 1.089E+02 6.877E-03 6.877E-03
 ETOT  2  -6.2611155152229    -5.717E-02 2.734E-05 6.077E-01 1.016E-02 3.286E-03
 ETOT  3  -6.2617688839956    -6.534E-04 1.787E-05 4.208E-01 5.352E-04 2.751E-03
 ETOT  4  -6.2619683749309    -1.995E-04 1.004E-05 9.557E-03 6.525E-05 2.817E-03
 ETOT  5  -6.2619730663013    -4.691E-06 4.129E-06 8.397E-05 4.771E-05 2.769E-03
 ETOT  6  -6.2619731679891    -1.017E-07 1.934E-05 6.638E-07 2.743E-06 2.772E-03

 At SCF step    6, forces are converged :
  for the second time, max diff in force=  2.743E-06 < toldff=  5.000E-05

 Cartesian components of stress tensor (hartree/bohr^3)
  sigma(1 1)=  3.54022395E-05  sigma(3 2)=  0.00000000E+00
  sigma(2 2)=  3.54022395E-05  sigma(3 1)=  0.00000000E+00
  sigma(3 3)=  2.65598454E-04  sigma(2 1)=  0.00000000E+00

---OUTPUT-----------------------------------------------------------------------

 Cartesian coordinates (xcart) [bohr]
  0.00000000000000E+00  0.00000000000000E+00  0.00000000000000E+00
  3.75279545000000E+00  0.00000000000000E+00  3.75279545000000E+00
  0.00000000000000E+00  0.00000000000000E+00  7.50559090000000E+00
 Reduced coordinates (xred)
  0.00000000000000E+00  0.00000000000000E+00  0.00000000000000E+00
  5.00000000000000E-01  5.00000000000000E-01  2.50000000000000E-01
  0.00000000000000E+00  0.00000000000000E+00  5.00000000000000E-01
 Cartesian forces (fcart) [Ha/bohr]; max,rms= 2.77154E-03 1.30652E-03 (free atoms)
 -0.00000000000000E+00 -0.00000000000000E+00 -2.77154210054581E-03
 -0.00000000000000E+00 -0.00000000000000E+00 -0.00000000000000E+00
 -0.00000000000000E+00 -0.00000000000000E+00  2.77154210054581E-03
 Reduced forces (fred)
  0.00000000000000E+00  0.00000000000000E+00  4.16041223376470E-02
  0.00000000000000E+00  0.00000000000000E+00  0.00000000000000E+00
  0.00000000000000E+00  0.00000000000000E+00 -4.16041223376470E-02
 Total energy (etotal) [Ha]= -6.26197316798911E+00

[...]

 Difference of energy with previous step (new-old):
           Absolute (Ha)=-1.55601E-05
           Relative     =-2.48486E-06

--- Iteration: ( 3/10) Internal Cycle: (1/1)

---SELF-CONSISTENT-FIELD CONVERGENCE--------------------------------------------

     iter   Etot(hartree)      deltaE(h)  residm     vres2    diffor    maxfor
 ETOT  1  -6.2620513394853    -6.262E+00 7.898E-06 2.670E-01 2.971E-03 2.804E-04
 ETOT  2  -6.2622145831958    -1.632E-04 4.148E-07 1.870E-02 9.905E-05 1.813E-04
 ETOT  3  -6.2622247587966    -1.018E-05 1.254E-06 8.081E-05 8.019E-05 1.011E-04
 ETOT  4  -6.2622248370315    -7.823E-08 3.826E-08 5.433E-06 2.821E-06 9.832E-05
 ETOT  5  -6.2622248402110    -3.180E-09 8.177E-08 2.492E-07 4.365E-07 9.788E-05

 At SCF step    5, forces are converged :
  for the second time, max diff in force=  4.365E-07 < toldff=  5.000E-05

[...]

---OUTPUT-----------------------------------------------------------------------

 Cartesian coordinates (xcart) [bohr]
  0.00000000000000E+00  0.00000000000000E+00 -9.43454139842523E-02
  3.75279545000000E+00  0.00000000000000E+00  3.75279545000000E+00
  0.00000000000000E+00  0.00000000000000E+00  7.59993631398423E+00
 Reduced coordinates (xred)
  0.00000000000000E+00  0.00000000000000E+00 -6.28500908464464E-03
  5.00000000000000E-01  5.00000000000000E-01  2.50000000000000E-01
  0.00000000000000E+00  0.00000000000000E+00  5.06285009084643E-01
 Cartesian forces (fcart) [Ha/bohr]; max,rms= 9.78807E-05 4.61414E-05 (free atoms)
 -0.00000000000000E+00 -0.00000000000000E+00  9.78807405795904E-05
 -0.00000000000000E+00 -0.00000000000000E+00 -0.00000000000000E+00
 -0.00000000000000E+00 -0.00000000000000E+00 -9.78807405795904E-05
 Reduced forces (fred)
  0.00000000000000E+00  0.00000000000000E+00 -1.46930559155887E-03
  0.00000000000000E+00  0.00000000000000E+00  0.00000000000000E+00
  0.00000000000000E+00  0.00000000000000E+00  1.46930559155887E-03
 Total energy (etotal) [Ha]= -6.26222484021104E+00

 Difference of energy with previous step (new-old):
           Absolute (Ha)=-2.36112E-04
           Relative     =-3.77049E-05

 At Broyd/MD step   3, gradients are converged :
  max grad (force/stress) = 9.7881E-05 < tolmxf= 5.0000E-04 ha/bohr (free atoms)

 ----iterations are completed or convergence reached----

 Mean square residual over all n,k,spin=   1.9523E-09; max=  8.1774E-08
   0.0000  0.1250  0.0000    1  4.26579E-11 kpt; spin; max resid(k); each band:
  2.85E-12 8.38E-13 4.27E-11 1.46E-12 4.06E-11 2.86E-12 9.13E-14
   0.0000  0.3750  0.0000    1  2.36741E-12 kpt; spin; max resid(k); each band:
  1.94E-12 8.04E-13 2.04E-12 1.81E-12 1.88E-13 2.37E-12 6.52E-13
   0.1250  0.2500  0.0000    1  3.77495E-11 kpt; spin; max resid(k); each band:
  2.56E-12 8.27E-13 3.69E-11 9.45E-13 1.61E-12 4.15E-13 3.77E-11
   0.1250  0.5000  0.0000    1  3.26067E-12 kpt; spin; max resid(k); each band:
  7.02E-13 3.10E-12 4.40E-13 4.14E-14 7.57E-13 3.26E-12 2.99E-13
   0.2500  0.3750  0.0000    1  8.17736E-08 kpt; spin; max resid(k); each band:
  1.96E-12 1.74E-13 1.87E-12 1.90E-12 1.53E-13 2.18E-11 8.18E-08
   0.3750  0.5000  0.0000    1  9.67819E-13 kpt; spin; max resid(k); each band:
  9.68E-13 3.62E-14 5.88E-14 1.51E-13 8.81E-13 4.22E-13 1.37E-13
 reduced coordinates (array xred) for    3 atoms
       0.000000000000      0.000000000000     -0.006285009085
       0.500000000000      0.500000000000      0.250000000000
       0.000000000000      0.000000000000      0.506285009085
 rms dE/dt=  6.9264E-04; max dE/dt=  1.4693E-03; dE/dt below (all hartree)
    1       0.000000000000      0.000000000000     -0.001469305592
    2       0.000000000000      0.000000000000      0.000000000000
    3       0.000000000000      0.000000000000      0.001469305592

 cartesian coordinates (angstrom) at end:
    1      0.00000000000000     0.00000000000000    -0.04992544281545
    2      1.98589382064025     0.00000000000000     1.98589382064025
    3      0.00000000000000     0.00000000000000     4.02171308409595

 cartesian forces (hartree/bohr) at end:
    1     -0.00000000000000    -0.00000000000000     0.00009788074058
    2     -0.00000000000000    -0.00000000000000    -0.00000000000000
    3     -0.00000000000000    -0.00000000000000    -0.00009788074058
 frms,max,avg= 4.6141424E-05 9.7880741E-05   0.000E+00  0.000E+00  0.000E+00 h/b

 cartesian forces (eV/Angstrom) at end:
    1     -0.00000000000000    -0.00000000000000     0.00503322962739
    2     -0.00000000000000    -0.00000000000000    -0.00000000000000
    3     -0.00000000000000    -0.00000000000000    -0.00503322962739
 frms,max,avg= 2.3726872E-03 5.0332296E-03   0.000E+00  0.000E+00  0.000E+00 e/A
 length scales=  7.505590900000  7.505590900000  7.505590900000 bohr
              =  3.971787641281  3.971787641281  3.971787641281 angstroms
 prteigrs : about to open file tbase4_xo_EIG
 Fermi (or HOMO) energy (hartree) =   0.18910   Average Vxc (hartree)=  -0.31199
 Eigenvalues (hartree) for nkpt=   6  k points:
 kpt#   1, nband=  7, wtk=  0.12500, kpt=  0.0000  0.1250  0.0000 (reduced coord)
  -0.19268  -0.10463  -0.00986   0.16538   0.23918   0.29556   0.37451
      occupation numbers for kpt#   1
   2.00000   2.00000   2.00000   1.80033   0.00008   0.00066   0.00000
 kpt#   2, nband=  7, wtk=  0.12500, kpt=  0.0000  0.3750  0.0000 (reduced coord)
  -0.10784  -0.02092   0.05775   0.07269   0.14211   0.23836   0.24393
      occupation numbers for kpt#   2
   2.00000   2.00000   2.00010   2.00084   2.14046   0.00001   0.00138
 kpt#   3, nband=  7, wtk=  0.25000, kpt=  0.1250  0.2500  0.0000 (reduced coord)
  -0.15006  -0.06261   0.03184   0.17616   0.20420   0.25977   0.27903
      occupation numbers for kpt#   3
   2.00000   2.00000   2.00000   1.40351   0.31004   0.00526   0.00262
 kpt#   4, nband=  7, wtk=  0.12500, kpt=  0.1250  0.5000  0.0000 (reduced coord)
  -0.02720  -0.02158   0.06115   0.06148   0.13847   0.17500   0.30641
      occupation numbers for kpt#   4
   2.00000   2.00000   2.00017   2.00018   2.14101   1.45202   0.00020
 kpt#   5, nband=  7, wtk=  0.25000, kpt=  0.2500  0.3750  0.0000 (reduced coord)
  -0.06600   0.02036   0.09642   0.11359   0.17977   0.26629   0.27571
      occupation numbers for kpt#   5
   2.00000   2.00000   2.01226   2.05020   1.24875   0.00481   0.00321
 kpt#   6, nband=  7, wtk=  0.12500, kpt=  0.3750  0.5000  0.0000 (reduced coord)
   0.05349   0.05847   0.13886   0.14107   0.21856   0.22283   0.23310
      occupation numbers for kpt#   6
   2.00005   2.00011   2.14135   2.14153   0.06385   0.03231   0.00202
 Total charge density [el/Bohr^3]
,     Maximum=    3.4913E-02  at reduced coord.    0.0000    0.6667    0.4722
,Next maximum=    3.4913E-02  at reduced coord.    0.0000    0.3333    0.4722
,     Minimum=    2.5788E-03  at reduced coord.    0.5000    0.5000    0.2500
,Next minimum=    2.6993E-03  at reduced coord.    0.5000    0.5000    0.7500
,  Integrated=    9.0000E+00

 Components of total free energy (in Hartree) :

    Kinetic energy  =  2.41416246211069E+00
    Hartree energy  =  9.09153588894098E-01
    XC energy       = -2.32199313250438E+00
    Ewald energy    = -6.46139097076595E+00
    PspCore energy  =  8.70408728453810E-02
    Loc. psp. energy= -2.25100846602104E+00
    NL   psp  energy=  1.36333871255326E+00
    >>>>> Internal E= -6.26069693288794E+00

    -kT*entropy     = -1.52790732310046E-03
    >>>>>>>>> Etotal= -6.26222484021104E+00

 Other information on the energy :
    Total energy(eV)= -1.70403803944610E+02 ; Band energy (Ha)=   3.2017980818E-01
 rms coord change=  2.9628E-03   atom, delta coord (reduced):
     1        0.000000000000      0.000000000000     -0.006285009085
     2        0.000000000000      0.000000000000      0.000000000000
     3        0.000000000000      0.000000000000      0.006285009085

 Cartesian components of stress tensor (hartree/bohr^3)
  sigma(1 1)=  5.99200234E-05  sigma(3 2)=  0.00000000E+00
  sigma(2 2)=  5.99200234E-05  sigma(3 1)=  0.00000000E+00
  sigma(3 3)=  3.14084172E-04  sigma(2 1)=  0.00000000E+00

-Cartesian components of stress tensor (GPa)         [Pressure= -4.2555E+00 GPa]
- sigma(1 1)=  1.76290766E+00  sigma(3 2)=  0.00000000E+00
- sigma(2 2)=  1.76290766E+00  sigma(3 1)=  0.00000000E+00
- sigma(3 3)=  9.24067382E+00  sigma(2 1)=  0.00000000E+00

== END DATASET(S) ==============================================================

 -outvars: echo values of variables after computation  --------
            acell      7.5055909000E+00  7.5055909000E+00  7.5055909000E+00 Bohr
              amu      2.69815390E+01
             ecut      6.00000000E+00 Hartree
           etotal     -6.2622248402E+00
            fcart     -0.0000000000E+00 -0.0000000000E+00  9.7880740580E-05
                      -0.0000000000E+00 -0.0000000000E+00 -0.0000000000E+00
                      -0.0000000000E+00 -0.0000000000E+00 -9.7880740580E-05
           ionmov           2
              kpt      0.00000000E+00  1.25000000E-01  0.00000000E+00
                       0.00000000E+00  3.75000000E-01  0.00000000E+00
                       1.25000000E-01  2.50000000E-01  0.00000000E+00
                       1.25000000E-01  5.00000000E-01  0.00000000E+00
                       2.50000000E-01  3.75000000E-01  0.00000000E+00
                       3.75000000E-01  5.00000000E-01  0.00000000E+00
         kptrlatt        4   -4    0      4    4    0      0    0    1
          kptrlen      1.50111818E+01
P           mkmem           6
            natom           3
            nband           7
            ngfft          12      12      36
             nkpt           6
            nstep          10
             nsym          16
            ntime          10
           ntypat           1
              occ      2.000000  2.000000  2.000000  1.800332  0.000076  0.000663
                       0.000000
                       2.000000  2.000000  2.000103  2.000838  2.140463  0.000014
                       0.001381
                       2.000000  2.000000  2.000001  1.403506  0.310037  0.005259
                       0.002619
                       2.000000  2.000000  2.000170  2.000179  2.141010  1.452015
                       0.000203
                       2.000000  2.000000  2.012262  2.050203  1.248755  0.004807
                       0.003207
                       2.000053  2.000115  2.141353  2.141531  0.063855  0.032313
                       0.002024
           occopt           4
        optforces           1
            rprim      5.0000000000E-01 -5.0000000000E-01  0.0000000000E+00
                       5.0000000000E-01  5.0000000000E-01  0.0000000000E+00
                       0.0000000000E+00  0.0000000000E+00  2.0000000000E+00
           shiftk     -5.00000000E-01  5.00000000E-01  0.00000000E+00
          spgroup         123
           strten      5.9920023442E-05  5.9920023442E-05  3.1408417209E-04
                       0.0000000000E+00  0.0000000000E+00  0.0000000000E+00
           symrel      1  0  0   0  1  0   0  0  1      -1  0  0   0 -1  0   0  0 -1
                      -1  0  0   0  1  0   0  0 -1       1  0  0   0 -1  0   0  0  1
                      -1  0  0   0 -1  0   0  0  1       1  0  0   0  1  0   0  0 -1
                       1  0  0   0 -1  0   0  0 -1      -1  0  0   0  1  0   0  0  1
                       0  1  0   1  0  0   0  0  1       0 -1  0  -1  0  0   0  0 -1
                       0 -1  0   1  0  0   0  0 -1       0  1  0  -1  0  0   0  0  1
                       0 -1  0  -1  0  0   0  0  1       0  1  0   1  0  0   0  0 -1
                       0  1  0  -1  0  0   0  0 -1       0 -1  0   1  0  0   0  0  1
            tnons      0.0000000  0.0000000  0.0000000     0.0000000  0.0000000  0.5000000
                       0.0000000  0.0000000  0.5000000     0.0000000  0.0000000  0.0000000
                       0.0000000  0.0000000  0.0000000     0.0000000  0.0000000  0.5000000
                       0.0000000  0.0000000  0.5000000     0.0000000  0.0000000  0.0000000
                       0.0000000  0.0000000  0.0000000     0.0000000  0.0000000  0.5000000
                       0.0000000  0.0000000  0.5000000     0.0000000  0.0000000  0.0000000
                       0.0000000  0.0000000  0.0000000     0.0000000  0.0000000  0.5000000
                       0.0000000  0.0000000  0.5000000     0.0000000  0.0000000  0.0000000
           toldff      5.00000000E-05
           tolmxf      5.00000000E-04
            typat      1  1  1
              wtk        0.12500    0.12500    0.25000    0.12500    0.25000    0.12500
           xangst      0.0000000000E+00  0.0000000000E+00 -4.9925442815E-02
                       1.9858938206E+00  0.0000000000E+00  1.9858938206E+00
                       0.0000000000E+00  0.0000000000E+00  4.0217130841E+00
            xcart      0.0000000000E+00  0.0000000000E+00 -9.4345413984E-02
                       3.7527954500E+00  0.0000000000E+00  3.7527954500E+00
                       0.0000000000E+00  0.0000000000E+00  7.5999363140E+00
             xred      0.0000000000E+00  0.0000000000E+00 -6.2850090846E-03
                       5.0000000000E-01  5.0000000000E-01  2.5000000000E-01
                       0.0000000000E+00  0.0000000000E+00  5.0628500908E-01
            znucl       13.00000

- Timing analysis has been suppressed with timopt=0

 Suggested references for the acknowledgment of ABINIT usage.

 [1] Ab initio pseudopotentials for electronic structure calculations of poly-atomic systems,
 using density-functional theory.
 M. Fuchs, M. Scheffler, Comput. Phys. Commun. 119, 67 (1999).
 Comment : Some pseudopotential generated using the FHI code were used.

 [2] ABINIT : First-principles approach of materials and nanosystem properties.
 X. Gonze, B. Amadon, P.-M. Anglade, J.-M. Beuken, F. Bottin, P. Boulanger, F. Bruneval,
 D. Caliste, R. Caracas, M. Cote, T. Deutsch, L. Genovese, Ph. Ghosez, M. Giantomassi
 S. Goedecker, D.R. Hamann, P. Hermet, F. Jollet, G. Jomard, S. Leroux, M. Mancini, S. Mazevet,
 M.J.T. Oliveira, G. Onida, Y. Pouillon, T. Rangel, G.-M. Rignanese, D. Sangalli, R. Shaltaf,
 M. Torrent, M.J. Verstraete, G. Zerah, J.W. Zwanziger
 Computer Phys. Comm. 180, 2582-2615 (2009).
 Comment : the third generic paper describing the ABINIT project.
 Note that a version of this paper, that is not formatted for Computer Phys. Comm.
 The licence allows the authors to put it on the Web.

 [3] A brief introduction to the ABINIT software package.
 X. Gonze, G.-M. Rignanese, M. Verstraete, J.-M. Beuken, Y. Pouillon, R. Caracas, F. Jollet,
 M. Torrent, G. Zerah, M. Mikami, Ph. Ghosez, M. Veithen, J.-Y. Raty, V. Olevano, F. Bruneval,
 L. Reining, R. Godby, G. Onida, D.R. Hamann, and D.C. Allan.
 Z. Kristallogr. 220, 558-562 (2005).
 Comment : the second generic paper describing the ABINIT project. Note that this paper
 should be cited especially if you are using the GW part of ABINIT, as several authors
 of this part are not in the list of authors of the first or third paper.
 Note that it should not redistributed (Copyright by Oldenburg Wissenshaftverlag,
 the licence allows the authors to put it on the Web).

 And optionally :

 [4] First-principles computation of material properties : the ABINIT software project.
 X. Gonze, J.-M. Beuken, R. Caracas, F. Detraux, M. Fuchs, G.-M. Rignanese, L. Sindic,
 M. Verstraete, G. Zerah, F. Jollet, M. Torrent, A. Roy, M. Mikami, Ph. Ghosez, J.-Y. Raty, D.C. Allan.
 Comment : the original paper describing the ABINIT project.

 [5] Fast radix 2, 3, 4 and 5 kernels for Fast Fourier Transformations
 on computers with overlapping multiply-add instructions.
 S. Goedecker, SIAM J. on Scientific Computing 18, 1605 (1997).
-

 Calculation completed.
.Delivered    5 WARNINGs and   2 COMMENTs to log file.